%NProcShared=4
%Mem=10GB
%Chk=JACS_5_opt.chk
#P wB97XD/LANL2DZ opt freq=noraman

previous condition without solvent

0 2
O -4.064309 1.039650 -0.876930
N -3.616849 0.206101 0.217326
C -3.397355 -1.196512 -0.256091
C -1.889965 -1.510874 -0.373460
C -1.064867 -1.215302 0.902605
C -1.701559 -0.098595 1.765686
C -2.544815 0.915540 0.970609
C -1.593726 1.800609 0.032189
H -1.483331 -0.909023 -1.204823
H -1.767778 -2.563502 -0.679631
H -0.038630 -0.938353 0.609650
H -0.970993 -2.128905 1.513429
H -0.928462 0.439194 2.339723
H -2.357820 -0.572860 2.516997
H -1.118178 1.177611 -0.746172
H -0.781961 2.207617 0.663972
C -4.102903 -1.426891 -1.752423
H -3.662130 -0.725549 -2.485054
H -5.183553 -1.203131 -1.677601
C -4.073439 -2.186047 0.709707
O -3.873286 -2.771511 -2.129311
O -2.345142 2.853716 -0.549925
C -1.543462 3.667016 -1.382540
C -4.456465 -3.069675 -3.381003
H -3.926720 -3.219107 0.358317
H -5.156931 -1.990266 0.760439
H -3.677009 -2.117526 1.733157
H -1.123272 3.103597 -2.234528
H -0.714310 4.141417 -0.828350
H -2.193693 4.460753 -1.778825
H -4.234508 -4.125127 -3.594887
H -4.034582 -2.452151 -4.193527
H -5.552818 -2.939471 -3.369488
C -3.253753 1.848689 1.968202
H -3.897488 1.272017 2.652896
H -3.897954 2.576485 1.448049
H -2.521443 2.406853 2.571240

