%NProcShared=4
%Mem=10GB
%Chk=Macro_18_opt.chk
#P wB97XD/LANL2DZ opt freq=noraman

previous condition without solvent

0 2
O -7.271166 1.639759 -2.535606
N -6.936234 2.579582 -3.577287
C -5.777007 3.379686 -3.153720
C -8.149796 3.255857 -4.069900
C -4.592101 2.406290 -3.018812
C -5.920332 4.080772 -1.792438
C -8.999140 4.025688 -3.014676
C -9.054006 2.147264 -4.677126
H -4.417316 1.856883 -3.957929
H -4.777398 1.661176 -2.227431
H -6.184320 3.361432 -1.000578
H -6.673017 4.880829 -1.781002
H -9.894117 4.386431 -3.555571
H -8.477440 4.944714 -2.699247
H -9.963364 2.625273 -5.082288
H -9.400554 1.485926 -3.862803
C -8.447861 1.255130 -5.770152
C -9.479593 3.320086 -1.740139
C -5.419599 4.405483 -4.226305
C -6.666375 5.148553 -4.634882
C -7.772379 4.263845 -5.156354
H -9.168513 0.472947 -6.061061
H -7.531186 0.752536 -5.423067
H -8.196421 1.826551 -6.676919
H -8.637107 3.007546 -1.103103
H -10.087550 2.428795 -1.958122
H -10.101120 4.013350 -1.149500
H -5.046657 3.889431 -5.129420
H -4.650076 5.103589 -3.876791
H -7.364396 3.750686 -6.044186
H -8.634951 4.865894 -5.465347
O -6.772709 6.353194 -4.549345
H -3.670052 2.950662 -2.762670
H -4.955947 4.541878 -1.524334

