%NProcShared=4
%Mem=10GB
%Chk=26.chk
#P wB97XD/LANL2DZ opt freq=noraman

previous condition without solvent

0 2 
O         -5.74584        0.05059        1.87223
N         -4.50393        0.23346        1.57958
C         -3.71592        1.07482        2.55862
C         -2.34214        1.47652        1.97478
C         -1.65352        0.33083        1.23907
C         -2.56208       -0.08048        0.08623
C         -3.88281       -0.70094        0.58120
C         -4.51885        2.35366        2.80092
C         -3.50781        0.25292        3.83643
C         -4.85603       -0.82791       -0.60276
C         -3.66287       -2.10675        1.17356
H         -1.73767        1.86364        2.81062
H         -2.48450        2.30967        1.26688
H         -1.47930       -0.53167        1.90466
H         -0.67291        0.66038        0.86268
H         -2.06760       -0.78974       -0.59064
H         -2.81550        0.80971       -0.51471
H         -4.42705       -1.52766       -1.33471
H         -5.00035        0.15485       -1.07818
H         -5.82476       -1.20934       -0.25816
C         -4.80086        2.83782        4.08039
C         -5.46262        4.05874        4.25083
C         -5.85449        4.81076        3.14199
C         -5.59010        4.32634        1.85626
C         -4.92941        3.11139        1.69236
C         -2.85477       -3.01881        0.47573
C         -2.67231       -4.32541        0.92841
C         -3.29954       -4.75507        2.09934
C         -4.12508       -3.86664        2.79018
C         -4.31482       -2.56016        2.32816
H         -2.97272        0.86271        4.57933
H         -2.91131       -0.64414        3.62505
H         -4.48048       -0.05135        4.24855
H         -4.51027        2.26839        4.96362
H         -5.67542        4.41905        5.25934
H         -6.37360        5.76098        3.27779
H         -5.90440        4.89537        0.97898
H         -4.73775        2.72059        0.68944
H         -2.37518       -2.71974       -0.45785
H         -2.03332       -5.00533        0.36220
H         -3.15430       -5.77496        2.46109
H         -4.63607       -4.19220        3.69863
H         -4.99342       -1.89616        2.86250

