%NProcShared=4
%Mem=10GB
%Chk=28.chk
#P wB97XD/LANL2DZ opt freq=noraman

previous condition without solvent

0 2 
O         -5.00000        0.27424        1.80034
N         -4.12045        1.06170        1.28151
C         -4.00840        2.42637        1.90187
C         -3.11727        3.33151        1.03519
C         -1.80996        2.66540        0.62327
C         -2.14771        1.43537       -0.20110
C         -2.97146        0.39777        0.57427
C         -5.42045        3.01630        1.96324
C         -3.45197        2.28616        3.32979
C         -2.11163       -0.35074        1.60648
C         -3.56439       -0.60935       -0.41752
H         -2.92576        4.25774        1.60350
H         -3.65655        3.61076        0.11463
H         -1.23718        2.36822        1.52237
O         -1.00348        3.52190       -0.20336
H         -1.22457        0.95390       -0.56048
H         -2.71605        1.77054       -1.08523
H         -6.06574        2.38715        2.58844
H         -5.85135        3.07312        0.95278
H         -5.36961        4.02972        2.38859
H         -2.40250        1.96123        3.33528
H         -4.05758        1.54526        3.87242
H         -3.51943        3.25605        3.84711
H         -1.37944       -0.98400        1.08081
H         -2.76423       -0.98672        2.22080
H         -1.56185        0.33728        2.26324
H         -4.20380       -0.09209       -1.14911
H         -4.16688       -1.35687        0.11441
H         -2.74305       -1.10869       -0.95229
H         -0.83655        4.33209        0.30745

