%NProcShared=4
%Mem=10GB
%Chk=31.chk
#P wB97XD/LANL2DZ opt freq=noraman

previous condition without solvent

0 2 
O         -8.01706       -2.09210       -1.08077
N         -8.08437       -1.51626       -2.23457
C         -9.42212       -1.06046       -2.75367
C        -10.51180       -1.82734       -2.00437
C         -6.85228       -0.94617       -2.82015
C         -9.57102        0.44783       -2.50294
C         -9.52878       -1.37695       -4.25325
C         -5.74165       -2.02935       -3.04802
H        -10.46190       -1.62795       -0.92673
H        -10.40260       -2.91010       -2.15971
H         -8.81077        1.02458       -3.04994
H         -9.45651        0.66212       -1.43014
H        -10.56860        0.77857       -2.83151
H         -9.29386       -2.43550       -4.43920
H         -8.86103       -0.75169       -4.86358
H        -10.55960       -1.17982       -4.58581
C         -6.37393       -3.23146       -3.76189
C         -5.06592       -2.49339       -1.75175
H        -11.48900       -1.50492       -2.39376
H         -7.13875       -0.61635       -3.82978
H         -7.12020       -3.72003       -3.11734
H         -5.59223       -3.96568       -4.01312
H         -6.86588       -2.91784       -4.69873
H         -5.79782       -2.94380       -1.06891
H         -4.57577       -1.65100       -1.24184
H         -4.29341       -3.23961       -1.99972
C         -6.37920        0.28560       -2.07127
C         -6.05568        1.43844       -2.80247
C         -5.59883        2.58979       -2.15965
C         -5.46049        2.60381       -0.76960
C         -5.79117        1.46259       -0.03090
C         -6.24783        0.31157       -0.67554
C         -4.67650       -1.40025       -3.96043
H         -6.16477        1.42344       -3.88962
H         -5.35338        3.47841       -2.74420
H         -5.10099        3.50145       -0.26300
H         -5.69408        1.47003        1.05616
H         -6.51773       -0.57707       -0.10543
H         -3.88996       -2.14190       -4.17300
H         -4.20950       -0.52742       -3.47985
H         -5.11485       -1.07701       -4.92040

