%NProcShared=4
%Mem=10GB
%Chk=38.chk
#P wB97XD/LANL2DZ opt freq=noraman

previous condition without solvent

0 2 
O         -6.80160       -1.29337        0.19808
N         -6.37586       -0.59162       -0.79374
C         -4.99971       -0.00710       -0.67552
C         -4.44680        0.38854       -2.04673
C         -7.34583       -0.00990       -1.77515
C         -5.10545        1.21446        0.24995
C         -4.09306       -1.07453       -0.05605
C         -8.79369       -0.16019       -1.25018
H         -4.43329       -0.47210       -2.73031
H         -3.41744        0.75466       -1.91006
H         -5.51841        0.90096        1.22013
H         -5.76723        1.97852       -0.18915
H         -4.11171        1.66266        0.40627
H         -4.05140       -1.95971       -0.71017
H         -4.47126       -1.38271        0.92593
H         -3.07714       -0.66433        0.04875
C         -9.00532        0.76399       -0.04779
H         -5.02868        1.19246       -2.51706
H         -7.12585        1.07254       -1.78673
H        -10.02360        0.64566        0.35512
H         -8.88452        1.81795       -0.35620
H         -8.28595        0.54178        0.75285
C         -7.11355       -0.54128       -3.18460
C         -6.95519       -1.92069       -3.44318
C         -6.76131       -2.34872       -4.76220
C         -6.71102       -1.46045       -5.83844
C         -6.88206       -0.10236       -5.56511
C         -7.08207        0.37180       -4.26399
C         -9.84170        0.11382       -2.33344
C         -6.97043       -2.96808       -2.35946
H         -6.65017       -3.42052       -4.94982
C         -6.46936       -1.94947       -7.24106
H         -6.86659        0.61605       -6.38894
C         -7.27180        1.85716       -4.07494
H         -9.83033        1.17146       -2.64410
H        -10.84520       -0.09589       -1.93070
H         -9.68201       -0.50936       -3.22465
H         -8.90671       -1.19999       -0.90942
H         -6.02070       -2.97618       -1.79852
H         -7.11805       -3.96472       -2.80223
H         -7.75191       -2.79076       -1.60815
H         -6.93976       -2.93126       -7.40707
H         -5.38984       -2.06625       -7.43907
H         -6.86741       -1.24200       -7.98325
H         -8.24428        2.09282       -3.61679
H         -7.21951        2.37488       -5.04418
H         -6.49960        2.29995       -3.42096

