%NProcShared=4
%Mem=10GB
%Chk=nBuA.chk
#P wB97XD/LANL2DZ opt freq=noraman

previous condition without solvent

0 2
C -5.867488 0.145648 -0.482683
C -4.914345 -0.892528 0.138753
C -3.489013 -0.523443 0.157691
O -2.565879 -1.173681 0.591484
O -3.362008 0.701095 -0.405451
C -2.046022 1.288287 -0.508075
C -2.193259 2.692842 -1.178068
H -6.896472 -0.247265 -0.439230
H -5.623213 0.342895 -1.538287
H -5.844382 1.099826 0.067025
H -4.998309 -1.845664 -0.406508
H -1.387753 0.635941 -1.104172
H -1.593013 1.376253 0.492506
H -2.856369 3.327203 -0.569019
H -2.648954 2.583474 -2.174592
H -1.227790 3.208149 -1.292270

