%NProcShared=4
%Mem=10GB
%Chk=Styrene.chk
#P wB97XD/LANL2DZ opt freq=noraman

previous condition without solvent

0 2 
C         -8.00203       -3.45336        1.33097
C         -7.18864       -4.26904        0.52868
C         -6.16146       -3.68441       -0.22551
C         -5.94249       -2.31469       -0.18300
C         -6.74593       -1.46483        0.63206
C         -7.79094       -2.08493        1.38035
C         -6.54481       -0.06956        0.72277
C         -5.05480        1.98361        0.77350
C         -4.46618        1.63006        2.12820
C         -3.28563        0.87782        2.22802
C         -2.73940        0.55992        3.47102
C         -3.36321        0.99229        4.64406
C         -4.54009        1.73931        4.56145
C         -5.08061        2.05491        3.31294
C         -4.08284        2.82416       -0.06995
H         -8.80626       -3.89955        1.91941
H         -7.35541       -5.34636        0.49167
H         -5.52906       -4.31187       -0.85599
H         -5.14329       -1.88199       -0.78675
H         -8.42483       -1.45501        2.00770
H         -7.23249        0.49040        1.36424
H         -5.95876        2.59059        0.95666
H         -2.78755        0.52995        1.31909
H         -1.82070       -0.02760        3.52706
H         -2.93579        0.74338        5.61678
H         -5.03662        2.08052        5.47245
H         -5.99918        2.64488        3.25293
H         -3.16746        2.25800       -0.29968
H         -3.78487        3.73648        0.46686
H         -4.54535        3.11820       -1.02532
C         -5.50648        0.72033        0.00011
H         -4.62193        0.09862       -0.21842
H         -5.88871        1.04921       -0.98866

