%NProcShared=4
%Mem=10GB
%Chk=26.chk
#P wB97XD/LANL2DZ opt freq=noraman

previous condition without solvent

0 1 
C         -8.27987       -2.64847       -0.86584
C         -8.07118       -3.84112       -0.16880
C         -7.40084       -3.81859        1.05708
C         -6.93335       -2.61096        1.58065
C         -7.13262       -1.41108        0.88728
C         -7.81142       -1.44015       -0.33793
C         -6.62538       -0.10475        1.45850
C         -8.93420        0.99316        1.66686
C         -9.95781        1.51228        2.65284
C        -11.21710        0.90924        2.76162
C        -12.17690        1.40385        3.64976
C        -11.88440        2.51483        4.44538
C        -10.62800        3.12375        4.34753
C         -9.67314        2.62604        3.45834
C         -8.64788        2.06225        0.59680
H         -8.79020       -2.65758       -1.83149
H         -8.42209       -4.78741       -0.58493
H         -7.21089       -4.74714        1.59805
H         -6.36151       -2.59927        2.50973
H         -7.96534       -0.50828       -0.88706
H         -6.36961        0.59354        0.64999
H         -9.36611        0.10671        1.17237
H        -11.44000        0.03745        2.14155
H        -13.15370        0.92154        3.71752
H        -12.63230        2.90510        5.13696
H        -10.39440        3.99385        4.96490
H         -8.69334        3.10472        3.38499
H         -7.98942        1.67925       -0.19775
H         -8.14907        2.93068        1.05370
H         -9.58812        2.39999        0.13489
C         -7.64809        0.55301        2.39310
H         -7.90584       -0.16131        3.19375
H         -7.16830        1.42752        2.85982
O         -5.40843       -0.35397        2.21621
N         -4.26645        0.26633        1.61377
C         -3.63796        1.11935        2.65180
C         -2.25254        1.57773        2.14492
C         -1.41977        0.38683        1.66885
C         -2.09991       -0.19878        0.43925
C         -3.57521       -0.65418        0.65830
C         -4.57855        2.33785        2.77027
C         -3.43635        0.46194        4.03263
C         -4.26049       -0.44217       -0.71462
C         -3.63443       -2.13274        1.07852
H         -1.76484        2.12894        2.96341
H         -2.37807        2.28342        1.30666
H         -1.31507       -0.37286        2.45930
H         -0.40085        0.71130        1.40563
H         -1.54824       -1.05789        0.02827
H         -2.10345        0.58542       -0.33705
H         -3.67883       -0.92903       -1.51430
H         -4.28318        0.64043       -0.90527
H         -5.28240       -0.83825       -0.74558
C         -5.16187        2.75369        3.97282
C         -6.04523        3.84000        4.00980
C         -6.35704        4.53478        2.84096
C         -5.77615        4.13263        1.63168
C         -4.90615        3.04421        1.60294
C         -4.09369       -3.12225        0.19610
C         -4.17282       -4.46433        0.57971
C         -3.79841       -4.85243        1.86544
C         -3.32790       -3.88217        2.75574
C         -3.24657       -2.54634        2.36105
H         -3.11712        1.22787        4.75522
H         -2.63948       -0.28895        4.00064
H         -4.36182       -0.00888        4.38841
H         -4.95608        2.21907        4.89816
H         -6.49386        4.13946        4.95982
H         -7.05267        5.37570        2.86669
H         -6.01381        4.66241        0.70744
H         -4.48813        2.70050        0.65454
H         -4.43262       -2.85259       -0.80191
H         -4.55451       -5.20242       -0.12730
H         -3.86935       -5.89658        2.17406
H         -3.02822       -4.16372        3.76719
H         -2.90516       -1.81064        3.08048

