%NProcShared=4
%Mem=10GB
%Chk=28.chk
#P wB97XD/LANL2DZ opt freq=noraman

previous condition without solvent

0 1 
C         -6.70124        0.48850       -2.32414
C         -6.70990       -0.84128       -2.75738
C         -6.65535       -1.87863       -1.82221
C         -6.59016       -1.58600       -0.45870
C         -6.56927       -0.25836       -0.01363
C         -6.63885        0.77309       -0.95888
C         -6.40553        0.10971        1.43905
C         -6.97549       -0.47468        3.88760
C         -7.67252        0.84290        4.15399
C         -8.96198        1.10132        3.66653
C         -9.61343        2.29982        3.96461
C         -8.98480        3.26212        4.76014
C         -7.69924        3.01922        5.25043
C         -7.05249        1.81904        4.94529
C         -7.59239       -1.58217        4.75662
H         -6.74095        1.30035       -3.05234
H         -6.76924       -1.06997       -3.82257
H         -6.66402       -2.91928       -2.15263
H         -6.53673       -2.40287        0.26269
H         -6.62091        1.80548       -0.60828
H         -6.88295        1.08994        1.59855
H         -5.91784       -0.35030        4.17122
H         -9.46383        0.35256        3.04797
H        -10.61870        2.48185        3.57711
H         -9.49749        4.19682        4.99356
H         -7.20039        3.76829        5.87025
H         -6.04106        1.63294        5.31650
H         -8.65213       -1.72939        4.48853
H         -7.54668       -1.31379        5.82211
H         -7.06274       -2.53616        4.60600
C         -7.00930       -0.90038        2.41071
H         -8.04852       -1.09657        2.09706
H         -6.46500       -1.85428        2.31876
O         -5.00159        0.20175        1.84712
N         -4.24521        1.15490        1.04500
C         -4.03097        2.38946        1.86508
C         -3.11710        3.32596        1.04497
C         -1.81606        2.66858        0.60248
C         -2.16067        1.43778       -0.21402
C         -3.02597        0.42866        0.56027
C         -5.38312        3.10285        2.01151
C         -3.46782        2.15513        3.28152
C         -2.20023       -0.27257        1.66135
C         -3.47224       -0.64658       -0.43638
H         -2.91852        4.22489        1.65574
H         -3.65530        3.64719        0.13696
H         -1.22096        2.37406        1.48809
O         -1.02560        3.53667       -0.23349
H         -1.24128        0.92803       -0.54431
H         -2.70700        1.76806       -1.11327
H         -6.03972        2.57982        2.71862
H         -5.87660        3.17551        1.03182
H         -5.21420        4.11984        2.40134
H         -2.40277        1.89268        3.28723
H         -4.03478        1.34814        3.76737
H         -3.59193        3.07389        3.87606
H         -1.52790       -1.00535        1.18705
H         -2.87201       -0.81346        2.34190
H         -1.57871        0.41544        2.24730
H         -4.14352       -0.22326       -1.19539
H         -3.99743       -1.45794        0.08105
H         -2.57882       -1.06205       -0.92783
H         -0.86125        4.34324        0.28352

