%NProcShared=4
%Mem=10GB
%Chk=33.chk
#P wB97XD/LANL2DZ opt freq=noraman

previous condition without solvent

0 1 
C         -5.16545        1.46386        1.57371
C         -5.80907        1.64987        2.79949
C         -6.96695        0.92066        3.09762
C         -7.48406        0.02390        2.16154
C         -6.86208       -0.14713        0.91468
C         -5.68964        0.56333        0.63991
C         -7.44655       -1.09008       -0.10677
C         -6.40006       -3.15589        0.95959
C         -6.70821       -4.43041        1.71542
C         -7.41487       -5.47664        1.10316
C         -7.68387       -6.65662        1.79879
C         -7.24332       -6.81281        3.11573
C         -6.54462       -5.77431        3.73849
C         -6.28087       -4.59455        3.03745
C         -5.42260       -3.42268       -0.19651
H         -4.25307        2.01711        1.34585
H         -5.40964        2.36037        3.52458
H         -7.46155        1.05061        4.06191
H         -8.38776       -0.54383        2.38831
H         -5.19604        0.41762       -0.32323
H         -6.77447       -1.14272       -0.97376
H         -5.91670       -2.45788        1.66449
H         -7.76152       -5.36345        0.07308
H         -8.23694       -7.46010        1.30935
H         -7.44994       -7.73666        3.65712
H         -6.20176       -5.88260        4.76950
H         -5.73531       -3.78076        3.52141
H         -5.11290       -2.48258       -0.68051
H         -5.89769       -4.06191       -0.95919
H         -4.52066       -3.93525        0.17051
C         -7.69283       -2.48654        0.45872
H         -8.41571       -2.41985        1.28819
H         -8.16560       -3.10419       -0.32340
O         -8.74103       -0.62574       -0.58019
N         -8.59250        0.25362       -1.73420
C         -9.02880       -0.49274       -2.95920
C         -8.81901        0.43849       -4.16486
C         -9.27851        1.54112       -1.42305
C         -8.10696       -1.70645       -3.12522
C        -10.49720       -0.96278       -2.94096
C         -8.27239        2.50972       -0.74951
H         -7.88030        1.00052       -4.04492
H         -9.64738        1.15468       -4.28613
H         -8.25056       -2.42366       -2.30816
H         -7.05415       -1.39002       -3.16183
H         -8.35747       -2.21711       -4.06627
O        -10.80020       -1.91374       -1.92384
H        -10.70630       -1.45327       -3.90710
H        -11.15410       -0.07676       -2.86496
C         -8.93590        3.86483       -0.47732
C         -7.03309        2.69789       -1.62465
H         -8.75826       -0.16196       -5.08530
H         -9.51863        1.98362       -2.40302
H         -9.29378        4.31247       -1.42279
H         -8.20910        4.55963       -0.02643
H         -9.79632        3.76742        0.20079
H         -7.31464        3.16793       -2.58425
H         -6.55655        1.73196       -1.83875
H         -6.30221        3.35154       -1.12127
C        -10.57600        1.43720       -0.63641
C        -11.81110        1.69934       -1.24208
C        -13.00210        1.62470       -0.51473
C        -12.97320        1.30230        0.84438
C        -11.74300        1.07102        1.46796
C        -10.55840        1.14018        0.73431
H         -7.96216        2.06545        0.21110
H        -11.84150        1.96844       -2.30074
H        -13.95530        1.81978       -1.00744
H        -13.90000        1.23719        1.41811
H        -11.70450        0.82999        2.53234
H         -9.60143        0.97250        1.22476
H        -10.38230       -1.56655       -1.11018

