%NProcShared=4
%Mem=10GB
%Chk=JACS_6_opt.chk
#P wB97XD/LANL2DZ opt freq=noraman

previous condition without solvent

0 2
O -4.699412 0.272660 -0.462499
N -3.603424 -0.039694 0.421515
C -3.053939 -1.396573 0.113590
C -1.748312 -1.282814 -0.699168
C -0.659249 -0.391509 -0.050392
C -1.262513 0.695579 0.873357
C -2.685308 1.135804 0.476588
C -2.601311 2.007677 -0.957806
H -2.003222 -0.860447 -1.686857
H -1.358778 -2.295550 -0.895300
H -0.059773 0.077428 -0.848571
H 0.042413 -1.010127 0.533572
H -0.608940 1.583304 0.908728
H -1.293069 0.303937 1.904762
H -3.614421 2.322180 -1.252730
H -2.193193 1.382001 -1.766254
C -4.165739 -2.300608 -0.772302
H -4.362076 -1.797002 -1.732884
H -5.112266 -2.357652 -0.210757
C -2.802601 -2.180346 1.413535
O -3.685039 -3.619785 -1.019876
O -1.780210 3.162425 -0.792801
H -2.418650 -3.184764 1.176685
H -3.741368 -2.295820 1.979001
H -2.076045 -1.689517 2.077361
C -3.230715 2.082998 1.558713
H -3.304070 1.573146 2.532809
H -4.235630 2.447540 1.292224
H -2.570948 2.956727 1.676695
Si -1.465297 4.376966 -1.937726
Si -4.460104 -4.789457 -1.979324
C -1.339264 3.532310 -3.635457
C 0.207599 5.169995 -1.498632
C -2.861079 5.728256 -1.944682
C -2.853798 6.522638 -0.624835
C -4.251356 5.084809 -2.104576
C -2.652817 6.706955 -3.114019
C -5.862041 -5.590878 -0.974209
C -5.178929 -3.861864 -3.475421
C -3.179490 -6.126427 -2.559273
C -3.770086 -6.993824 -3.684130
C -1.910633 -5.437671 -3.095368
C -2.771893 -7.039889 -1.387422
H -0.581796 2.733313 -3.633973
H -1.047907 4.257434 -4.411107
H -2.291400 3.079372 -3.950244
H 0.457671 5.990774 -2.189716
H 1.021178 4.430196 -1.552806
H 0.214164 5.586439 -0.480065
H -1.900755 7.054425 -0.465720
H -3.018195 5.860074 0.241883
H -3.652456 7.284728 -0.620026
H -4.494405 4.422285 -1.257994
H -4.325922 4.488276 -3.028481
H -5.036034 5.858148 -2.147954
H -2.696530 6.194375 -4.089111
H -1.681201 7.225101 -3.052447
H -3.434377 7.486590 -3.116155
H -6.373925 -6.377780 -1.551198
H -6.617761 -4.843468 -0.686835
H -5.492838 -6.053945 -0.046589
H -5.922703 -3.109587 -3.172181
H -5.681353 -4.554359 -4.166722
H -4.398312 -3.337473 -4.047061
H -3.044038 -7.758482 -4.010326
H -4.032948 -6.392137 -4.569482
H -4.678827 -7.528522 -3.360796
H -1.171388 -6.182086 -3.433190
H -1.425458 -4.820223 -2.321034
H -2.131334 -4.779830 -3.952098
H -2.321834 -6.457599 -0.565490
H -2.029568 -7.789980 -1.712067
H -3.630926 -7.596684 -0.976340

