%NProcShared=4
%Mem=10GB
%Chk=Macro_20_opt.chk
#P wB97XD/LANL2DZ opt freq=noraman

previous condition without solvent

0 2
O -5.377648 -2.630449 -2.176070
N -4.865302 -2.297013 -3.487212
C -4.064396 -3.423777 -4.003645
C -4.516715 -0.858384 -3.505308
C -4.979804 -4.681750 -3.877253
C -2.737958 -3.717485 -3.249160
C -3.543803 -0.499911 -2.344956
C -5.866330 -0.125849 -3.232946
H -5.180509 -4.887369 -2.810547
H -4.412668 -5.556884 -4.241602
H -2.029900 -2.885953 -3.403743
H -2.283033 -4.589238 -3.753804
H -2.626139 -1.104057 -2.423787
H -4.013530 -0.810504 -1.393623
H -5.687482 0.962835 -3.242901
H -6.199304 -0.362705 -2.205495
C -2.775857 -4.011535 -1.743481
C -6.331868 -4.648307 -4.606890
C -7.036945 -0.418728 -4.184612
C -3.121463 0.969972 -2.209777
C -3.742535 -3.281487 -5.500500
C -3.993110 -0.340796 -4.866476
H -3.376240 -4.903826 -1.509793
H -3.192527 -3.167281 -1.172781
H -1.753330 -4.191010 -1.374218
H -6.894537 -5.574111 -4.403565
H -6.206657 -4.570449 -5.698219
H -6.952022 -3.800639 -4.277858
H -7.278029 -1.491951 -4.215074
H -6.821658 -0.092345 -5.213803
H -7.939000 0.117915 -3.848695
H -3.983561 1.634796 -2.048168
H -2.577062 1.324149 -3.098770
H -2.449401 1.086960 -1.343749
H -4.664097 -2.988853 -6.033371
H -3.468680 -4.277198 -5.893717
H -3.956295 0.760228 -4.795933
H -4.729777 -0.567675 -5.657102
C -2.616147 -2.279200 -5.997029
C -2.616307 -0.836861 -5.334092
H -2.231152 -0.137008 -6.094709
H -1.899866 -0.789344 -4.498273
O -2.847706 -2.175881 -7.401463
H -1.624459 -2.741587 -5.833518
H -2.144368 -1.649348 -7.763031

