%NProcShared=4
%Mem=10GB
%Chk=nBA_30b_opt.chk
#P wB97XD/LANL2DZ opt freq=noraman

previous condition without solvent

0 1
C -7.645997 0.733366 -2.234254
C -6.959697 -0.034824 -1.037019
C -7.216396 -1.582266 -1.110421
O -7.655845 -2.201101 -2.046495
O -6.938683 -2.136505 0.101351
C -7.117946 -3.557545 0.278334
C -6.640073 -3.927277 1.719174
O -5.545904 0.203115 -1.054121
N -4.812317 -0.441458 -0.034013
C -3.532333 -0.955309 -0.549383
C -2.448479 -0.345940 0.319773
C -3.032607 0.495603 1.261589
C -4.534731 0.482470 1.077356
C -2.250587 1.184412 2.171431
C -0.866191 1.027373 2.140598
C -0.277488 0.179345 1.194608
C -1.074337 -0.506548 0.279837
C -5.038946 1.931316 0.963312
C -5.080999 -0.176887 2.364804
C -3.192452 -0.429091 -1.969285
C -3.425932 -2.485041 -0.553036
C -3.948773 -3.248233 -1.602788
C -3.898659 -4.639307 -1.599502
C -3.345685 -5.316375 -0.512224
C -2.866232 -4.579175 0.570773
C -2.924619 -3.188460 0.548692
C -6.187886 2.396672 1.612282
C -6.639844 3.704593 1.456186
C -5.957682 4.587460 0.618111
C -4.828248 4.136742 -0.065334
C -4.390938 2.826932 0.104561
H -8.737196 0.597597 -2.242776
H -7.230082 0.387149 -3.192719
H -7.422322 1.807096 -2.130804
H -7.372122 0.308835 -0.073609
H -6.538610 -4.108056 -0.478537
H -8.176215 -3.825645 0.132092
H -5.583621 -3.642364 1.840212
H -6.736323 -5.001902 1.932511
H -7.228848 -3.368593 2.462857
H -2.730239 1.850653 2.901995
H -0.234742 1.570869 2.858464
H 0.815328 0.057434 1.172081
H -0.629230 -1.177502 -0.468193
H -4.889659 0.434868 3.258771
H -4.615685 -1.164332 2.521550
H -6.165277 -0.354370 2.284239
H -2.232986 -0.837645 -2.320667
H -3.119885 0.670536 -1.982324
H -3.965609 -0.698261 -2.705255
H -4.418091 -2.745468 -2.460053
H -4.307238 -5.202865 -2.450898
H -3.305147 -6.414749 -0.501690
H -2.448890 -5.096303 1.446974
H -2.559130 -2.636158 1.426477
H -6.755986 1.727075 2.271910
H -7.540403 4.041579 1.990314
H -6.312038 5.619878 0.488816
H -4.286472 4.811847 -0.743342
H -3.507547 2.486538 -0.455318

