%NProcShared=4
%Mem=10GB
%Chk=nBA_38_opt.chk
#P wB97XD/LANL2DZ opt freq=noraman

previous condition without solvent

0 1
C -7.386308 -3.064095 -1.874682
C -7.909484 -1.577291 -1.696390
C -9.459134 -1.561468 -1.615734
O -10.201675 -2.511023 -1.602054
O -9.887653 -0.267745 -1.587035
C -11.307060 -0.015201 -1.501129
C -11.530347 1.532154 -1.527358
O -7.456160 -0.907879 -0.508210
N -6.121297 -0.435496 -0.513780
C -6.175169 1.033883 -0.694239
C -6.765926 1.365790 -2.079527
C -4.792960 1.712526 -0.694257
C -7.047869 1.755401 0.350062
C -5.423483 -0.926890 0.720528
C -5.804624 -2.393718 1.097459
C -4.811677 -3.117743 2.032445
C -7.164816 -2.506269 1.820767
C -3.897861 -0.816310 0.731047
C -3.252260 -0.221977 1.820524
C -1.873787 -0.132878 1.831632
C -1.089674 -0.616058 0.802190
C -1.745914 -1.209372 -0.257043
C -3.122364 -1.320210 -0.315119
C -3.702385 -2.008866 -1.530744
C -3.991371 0.357536 3.009701
C 0.412003 -0.508195 0.843625
H -7.829156 -3.517152 -2.774774
H -7.647751 -3.678964 -1.001168
H -6.294113 -3.063878 -1.996437
H -7.630749 -0.992273 -2.587663
H -11.709638 -0.453922 -0.574211
H -11.827746 -0.499246 -2.342704
H -11.014790 1.996763 -0.671939
H -12.595492 1.807894 -1.485003
H -11.098551 1.951267 -2.449646
H -7.829097 1.095248 -2.160856
H -6.213827 0.851461 -2.882021
H -6.701878 2.450435 -2.262557
H -4.114821 1.246376 -1.426486
H -4.300554 1.692987 0.288312
H -4.910641 2.773961 -0.966275
H -6.656468 1.649739 1.373241
H -8.081974 1.374232 0.347822
H -7.082506 2.830648 0.113824
H -5.803832 -0.320026 1.555437
H -5.846082 -2.985564 0.171487
H -5.178289 -4.136975 2.243620
H -4.716340 -2.594211 2.996688
H -3.802320 -3.231283 1.606666
H -7.128351 -1.959494 2.777623
H -7.386610 -3.562314 2.049301
H -8.027497 -2.120930 1.260032
H -1.369806 0.337221 2.688982
H -1.139838 -1.610537 -1.082578
H -2.925461 -2.233706 -2.275659
H -4.452255 -1.387675 -2.043352
H -4.170129 -2.968717 -1.262174
H -3.296860 0.697539 3.791308
H -4.599312 1.230126 2.719938
H -4.659623 -0.380197 3.480638
H 0.858152 -0.628998 -0.153892
H 0.847701 -1.280738 1.498984
H 0.729522 0.474161 1.224603

