%NProcShared=4
%Mem=10GB
%Chk=nBA_31_opt.chk
#P wB97XD/LANL2DZ opt freq=noraman

previous condition without solvent

0 1
C -5.694897 1.385255 -0.854448
C -5.369487 0.088916 -1.717556
C -6.159116 0.103305 -3.052735
O -6.867042 0.980244 -3.481532
O -5.958413 -1.083869 -3.691156
C -6.579678 -1.286303 -4.978700
C -6.133605 -2.681875 -5.521780
O -3.990947 -0.096151 -2.079837
N -3.030308 0.081529 -1.050384
C -2.069338 1.078417 -1.566094
C -2.804205 2.384314 -1.926945
C -1.016267 1.494950 -0.522190
C -1.328945 0.611580 -2.832309
C -2.453303 -1.262614 -0.670378
C -2.935361 -1.662303 0.774472
C -2.265525 -2.977267 1.220305
C -4.450678 -1.817440 0.983758
C -2.482870 -0.580226 1.777185
C -2.525765 -2.449118 -1.641830
C -1.334341 -3.039938 -2.078199
C -1.324856 -4.127554 -2.946838
C -2.529504 -4.659840 -3.407261
C -3.729154 -4.085166 -2.985253
C -3.716289 -2.997525 -2.116130
H -6.754072 1.384101 -0.555753
H -5.492671 2.305908 -1.420240
H -5.075580 1.388324 0.055157
H -5.716478 -0.804058 -1.174979
H -6.275459 -0.485293 -5.671021
H -7.675694 -1.231894 -4.882973
H -5.034408 -2.719333 -5.579412
H -6.541146 -2.893080 -6.521465
H -6.465835 -3.476154 -4.836093
H -3.309820 2.812649 -1.047414
H -3.555534 2.237907 -2.718890
H -2.080255 3.129056 -2.294099
H -0.380793 2.289443 -0.945102
H -0.351424 0.672034 -0.219813
H -1.495058 1.890825 0.387690
H -0.675638 1.420072 -3.195793
H -2.034019 0.353322 -3.638692
H -0.699214 -0.271625 -2.646876
H -1.371370 -1.114683 -0.519867
H -2.508399 -3.200646 2.272905
H -1.167570 -2.921223 1.140030
H -2.601270 -3.839850 0.621435
H -4.986006 -0.869666 0.827083
H -4.643526 -2.122423 2.027013
H -4.904859 -2.582717 0.337721
H -1.391269 -0.431740 1.755796
H -2.756137 -0.861842 2.808017
H -2.958182 0.391810 1.567402
H -0.372744 -2.639050 -1.725703
H -0.369329 -4.567018 -3.267989
H -2.534527 -5.519737 -4.091012
H -4.688100 -4.489087 -3.340160
H -4.672674 -2.561015 -1.808225

