%NProcShared=4
%Mem=10GB
%Chk=nBA_40_opt.chk
#P wB97XD/LANL2DZ opt freq=noraman

previous condition without solvent

0 1
C -8.104640 1.191067 2.604122
C -8.444603 1.251729 1.057989
C -9.598854 2.243502 0.762125
O -10.186275 2.949045 1.543406
O -9.890374 2.180699 -0.567337
C -10.935743 3.027348 -1.091721
C -11.040996 2.765614 -2.629011
O -7.335739 1.683001 0.260003
N -6.260742 0.768269 0.194634
C -6.276896 0.007236 -1.095073
C -4.824085 0.143476 -1.624855
C -4.010421 0.537818 -0.383334
C -4.985948 1.505528 0.318655
C -4.662699 1.726469 1.803632
C -5.004991 2.897566 -0.354364
C -7.292832 0.516310 -2.131313
C -6.600564 -1.459726 -0.781624
C -2.691125 1.054328 -0.652709
N -1.628251 1.468061 -0.863382
H -8.978477 0.873871 3.192304
H -7.768919 2.176234 2.960941
H -7.291167 0.467310 2.767111
H -8.782136 0.262746 0.702057
H -10.701050 4.084581 -0.889305
H -11.890103 2.805429 -0.588249
H -10.074771 2.986509 -3.109419
H -11.816465 3.380820 -3.109400
H -11.276054 1.705069 -2.810912
H -4.754074 0.949494 -2.376559
H -4.466433 -0.768397 -2.126859
H -3.897706 -0.357354 0.254202
H -4.641906 0.777556 2.362590
H -5.423170 2.373410 2.270671
H -3.682550 2.214688 1.919311
H -5.260576 2.856140 -1.423891
H -4.018521 3.377649 -0.255728
H -5.743506 3.557354 0.131765
H -8.328296 0.401043 -1.773497
H -7.189090 -0.064914 -3.060733
H -7.139877 1.580180 -2.372477
H -5.889412 -1.879827 -0.052376
H -6.558236 -2.071235 -1.696161
H -7.611312 -1.555817 -0.352713

