%NProcShared=4
%Mem=10GB
%Chk=nBA_33_opt.chk
#P wB97XD/LANL2DZ opt freq=noraman

previous condition without solvent

0 1
C -5.895071 0.244971 2.192388
C -5.220964 0.831145 0.878885
C -5.053309 2.370332 0.985886
O -5.286916 3.074794 1.935710
O -4.618718 2.843542 -0.216122
C -4.413106 4.265196 -0.365200
C -3.896141 4.532247 -1.815675
O -3.919048 0.309723 0.557615
N -3.828731 -1.092853 0.350285
C -2.752606 -1.595706 1.231525
C -1.317743 -0.790945 1.109580
C -2.505658 -3.105736 1.060328
C -3.190445 -1.410427 2.696722
C -3.709234 -1.386563 -1.106816
C -5.062965 -1.113440 -1.821756
C -2.591481 -0.736063 -1.913774
C -5.046075 -1.499737 -3.311087
C -6.224988 -1.881277 -1.168101
C -1.689219 -1.537351 -2.619262
C -0.643018 -0.987358 -3.354165
C -0.481138 0.397935 -3.404680
C -1.381990 1.214477 -2.718934
C -2.422502 0.645940 -1.989977
O -0.449519 -1.108135 0.028081
H -6.899730 0.675037 2.324165
H -5.297366 0.470571 3.086954
H -5.996535 -0.846575 2.099632
H -5.901099 0.665847 0.028953
H -3.686250 4.621923 0.381906
H -5.356777 4.803064 -0.180668
H -2.943233 4.004697 -1.975568
H -3.736882 5.602668 -2.014816
H -4.624822 4.147035 -2.546076
H -0.742099 -1.069883 2.004393
H -1.485530 0.299805 1.171769
H -2.090980 -3.363393 0.073135
H -3.437677 -3.677106 1.197242
H -1.778034 -3.443991 1.815304
H -4.148617 -1.913256 2.900886
H -3.293247 -0.346369 2.959731
H -2.434040 -1.842215 3.371707
H -3.575579 -2.478126 -1.206081
H -5.280785 -0.032777 -1.772520
H -4.314539 -0.919208 -3.895655
H -6.035095 -1.323229 -3.766262
H -4.805486 -2.568249 -3.435187
H -6.056200 -2.967872 -1.247975
H -7.180278 -1.651491 -1.667853
H -6.348192 -1.645504 -0.100261
H -1.797264 -2.631876 -2.581739
H 0.059033 -1.644405 -3.888749
H 0.343020 0.841480 -3.981477
H -1.270057 2.307900 -2.755024
H -3.125628 1.302686 -1.460516
H -0.850051 -0.736654 -0.757013

