%NProcShared=4
%Mem=10GB
%Chk=nBA_26_opt.chk
#P wB97XD/LANL2DZ opt freq=noraman

previous condition without solvent

0 1
C -6.899048 0.127511 0.325169
C -5.617389 -0.601240 -0.247074
C -5.979616 -1.743075 -1.231130
O -7.074576 -2.074141 -1.612053
O -4.828413 -2.371490 -1.596902
C -4.893148 -3.467883 -2.533161
C -3.436851 -3.984024 -2.763241
O -4.774271 0.294370 -0.977617
N -3.748428 0.889348 -0.214734
C -2.388210 0.362056 -0.591634
C -1.493532 1.592745 -0.311051
C -2.364417 2.738831 -0.831042
C -3.767549 2.401305 -0.243658
C -3.880915 3.076152 1.127696
C -4.157786 2.323815 2.273247
C -4.291975 2.914131 3.526606
C -4.158598 4.296566 3.664655
C -3.891389 5.069034 2.533151
C -3.760824 4.460784 1.287564
C -4.932372 2.955120 -1.088560
H -7.551658 -0.569136 0.870929
H -7.469827 0.590396 -0.493530
H -6.578713 0.924160 1.014215
H -5.041199 -1.068258 0.571291
H -5.343150 -3.128387 -3.479520
H -5.537584 -4.268148 -2.136153
H -2.813934 -3.165059 -3.155084
H -3.392256 -4.823772 -3.471993
H -3.002087 -4.310864 -1.805796
H -0.490830 1.529520 -0.758703
H -1.351703 1.712890 0.777968
H -2.396214 2.693222 -1.934065
H -1.999320 3.745299 -0.580653
H -4.268587 1.233383 2.183348
H -4.506429 2.290269 4.406397
H -4.267320 4.771483 4.650658
H -3.787935 6.160187 2.624916
H -3.555954 5.089588 0.409173
H -4.913128 2.547299 -2.110673
H -4.877195 4.050484 -1.171807
H -5.905677 2.693417 -0.644301
C -2.121723 -0.829850 0.347846
C -2.075683 -0.091578 -2.034367
C -0.886793 -0.771983 -2.330227
C -0.563073 -1.173451 -3.623490
C -1.425501 -0.884775 -4.680848
C -2.599001 -0.178104 -4.419394
C -2.902789 0.216394 -3.119450
H -1.069312 -1.144482 0.357474
H -2.738663 -1.698774 0.066875
H -2.387557 -0.555393 1.381584
H -0.175337 -1.002111 -1.525248
H 0.374034 -1.717444 -3.812440
H -1.179539 -1.199240 -5.705066
H -3.286402 0.072268 -5.240516
H -3.826477 0.785375 -2.957293

