%NProcShared=4
%Mem=10GB
%Chk=30b.chk
#P wB97XD/LANL2DZ opt freq=noraman

previous condition without solvent

0 2 
O         -3.96408       -0.87069        3.84308
N         -3.06035       -0.15358        3.30467
C         -2.85059        1.28892        3.68910
C         -1.71071        1.64153        2.76423
C         -1.51228        0.65963        1.78998
C         -2.48710       -0.47662        1.93506
C         -2.44110        1.39370        5.14986
C         -4.12166        2.07990        3.34097
C         -1.80187       -1.84363        2.00821
C         -3.61179       -0.45787        0.90131
H         -1.43400       -2.12894        1.01270
H         -2.51933       -2.60026        2.35249
H         -0.95818       -1.80372        2.71226
C         -1.49608        0.49147        5.66119
C         -1.04648        0.60179        6.97552
C         -1.53035        1.62318        7.79876
C         -2.46919        2.52714        7.29761
C         -2.92437        2.40897        5.98092
C         -4.58100       -1.47230        0.91832
C         -5.62689       -1.46623       -0.00465
C         -5.72140       -0.44995       -0.96027
C         -4.76693        0.56867       -0.97795
C         -3.72109        0.56505       -0.05218
H         -3.95214        3.15632        3.48572
H         -4.94992        1.74159        3.98114
H         -4.38005        1.90434        2.28740
H         -1.12343       -0.30304        5.01190
H         -0.31696       -0.11163        7.36098
H         -1.17772        1.70998        8.82778
H         -2.85562        3.32515        7.93419
H         -3.66964        3.11178        5.61044
H         -4.52661       -2.25386        1.67432
H         -6.37222       -2.26245        0.01966
H         -6.53527       -0.45390       -1.68708
H         -4.82840        1.36664       -1.71977
H         -2.97556        1.36052       -0.07445
C         -0.90999        2.78167        2.80370
C          0.08674        2.93899        1.83463
C          0.28253        1.95948        0.85085
C         -0.51409        0.80894        0.82717
H         -1.05514        3.52507        3.59085
H          0.72340        3.82558        1.84967
H          1.06678        2.09117        0.10314
H         -0.36752        0.04276        0.06260

