%NProcShared=4
%Mem=10GB
%Chk=24.chk
#P wB97XD/LANL2DZ opt freq=noraman

previous condition without solvent

0 2 
O         -5.01806        0.33809        1.70965
N         -4.09958        1.10581        1.22837
C         -4.01478        2.48428        1.82190
C         -3.07096        3.36580        0.98761
C         -1.74119        2.68523        0.67330
C         -2.02551        1.41572       -0.12536
C         -2.90884        0.41085        0.62896
C         -5.42593        3.07869        1.79594
C         -3.53762        2.37460        3.28088
C         -2.12459       -0.29150        1.75260
C         -3.43668       -0.63846       -0.35514
H         -2.92305        4.30966        1.53645
H         -3.57465        3.61579        0.03747
H         -1.20040        2.44426        1.60307
H         -1.09414        3.36173        0.09393
H         -1.09479        0.89614       -0.40617
H         -2.53759        1.69691       -1.06269
H         -6.10722        2.46695        2.39997
H         -5.80421        3.11761        0.76387
H         -5.39029        4.10043        2.20187
H         -2.47742        2.09529        3.34959
H         -4.14231        1.61209        3.79410
H         -3.67662        3.34367        3.78462
H         -1.37146       -0.96049        1.30728
H         -2.82314       -0.88553        2.35873
H         -1.60771        0.42762        2.40358
H         -4.03632       -0.15465       -1.14163
H         -4.06344       -1.37279        0.16756
H         -2.58158       -1.14828       -0.82315

