%NProcShared=4
%Mem=10GB
%Chk=29.chk
#P wB97XD/LANL2DZ opt freq=noraman

previous condition without solvent

0 2 
O         -8.04580        0.27679       -0.05871
N         -8.34739        1.09386       -1.00896
C         -8.20125        0.58209       -2.41628
C         -9.19095       -0.57643       -2.61770
C         -9.29482        2.19649       -0.68541
C         -8.46381        1.69339       -3.43526
C         -6.75925        0.08209       -2.55736
C         -8.93245        2.82871        0.67056
H        -10.22850       -0.21691       -2.57132
H         -9.03625       -1.32431       -1.82637
H         -7.80879        2.56066       -3.25801
H         -9.51465        2.01731       -3.42054
H         -8.24587        1.29956       -4.43947
H         -6.55073       -0.67876       -1.79364
H         -6.04999        0.91541       -2.43212
H         -6.62292       -0.35597       -3.55794
C         -9.89932        3.97689        0.97381
C         -7.48228        3.31627        0.67360
H         -9.01514       -1.04481       -3.59917
H         -9.16752        2.96828       -1.46008
H         -9.80936        4.76720        0.20939
H         -9.65960        4.42501        1.95033
H        -10.94430        3.63469        0.98908
H         -7.32773        4.06306       -0.12506
H         -6.78567        2.48042        0.51640
H         -7.24370        3.79704        1.63517
C        -10.71700        1.67804       -0.74059
C        -11.63880        2.20054       -1.65682
C        -12.94590        1.70896       -1.70858
C        -13.34150        0.68712       -0.84234
C        -12.42370        0.16013        0.07497
C        -11.11970        0.65197        0.12496
H         -9.04542        2.04236        1.43285
H        -11.32400        3.00397       -2.32761
H        -13.65530        2.12519       -2.42553
H        -14.36180        0.30325       -0.87965
H        -12.73080       -0.63806        0.75267
H        -10.38900        0.23273        0.81816

