%NProcShared=4
%Mem=10GB
%Chk=32.chk
#P wB97XD/LANL2DZ opt freq=noraman

previous condition without solvent

0 2 
O         -4.52470        0.11017        1.60564
N         -4.23840        1.31286        1.26862
C         -5.22661        2.42897        1.19559
O         -4.54260        3.40546        0.39523
C         -3.13048        3.18429        0.56550
C         -2.97596        1.66303        0.56295
C         -1.78316        1.14254        1.35157
C         -3.02253        1.07975       -0.85435
H         -2.61529        3.67599       -0.26958
H         -2.77802        3.60923        1.52504
H         -1.88059        0.05403        1.47034
H         -1.74779        1.60341        2.35034
H         -0.84822        1.36266        0.81673
H         -2.06758        1.25884       -1.37209
H         -3.83741        1.54602       -1.42716
H         -3.19841       -0.00428       -0.79093
C         -5.51738        2.98090        2.59966
C         -6.38784        2.02503        3.42354
C         -7.70401        1.74404        2.68824
C         -7.43214        1.13187        1.30856
C         -6.51371        2.03131        0.46812
H         -4.56235        3.19610        3.10421
H         -6.04640        3.93768        2.45111
H         -6.58101        2.46660        4.41491
H         -5.84543        1.07828        3.57707
H         -8.26007        2.69213        2.56854
H         -8.33817        1.06795        3.28274
H         -8.37621        0.97346        0.76331
H         -6.94887        0.15229        1.43863
H         -7.02745        2.97880        0.23287
H         -6.23977        1.55277       -0.48481

