%NProcShared=4
%Mem=10GB
%Chk=36.chk
#P wB97XD/LANL2DZ opt freq=noraman

previous condition without solvent

0 2 
O         -8.01654       -2.16109       -1.10045
N         -8.10938       -1.53518       -2.22603
C         -9.45386       -1.06795       -2.71406
C        -10.53050       -1.67327       -1.81664
C         -6.89066       -1.00495       -2.86683
C         -9.51433        0.46609       -2.64609
C         -9.65469       -1.54819       -4.16001
C         -5.80323       -2.10398       -3.12773
H        -10.40510       -1.34202       -0.77745
H        -10.48520       -2.77077       -1.83507
H         -8.77591        0.93298       -3.31513
H         -9.31370        0.81097       -1.62071
H        -10.51710        0.80410       -2.94876
H         -9.55609       -2.64184       -4.21647
H         -8.92893       -1.09384       -4.85174
H        -10.66250       -1.26330       -4.49892
C         -6.48514       -3.31891       -3.77187
C         -5.06068       -2.54056       -1.85881
H        -11.51140       -1.34351       -2.18890
H         -7.21150       -0.67290       -3.86628
H         -7.18915       -3.78716       -3.06857
H         -5.72394       -4.06164       -4.05519
H         -7.03607       -3.02601       -4.68074
H         -5.75737       -2.96706       -1.12600
H         -4.53248       -1.69354       -1.39683
H         -4.31183       -3.30120       -2.13102
C         -6.36707        0.21881       -2.14087
C         -6.01522        1.35465       -2.88637
C         -5.52339        2.49700       -2.26144
C         -5.37614        2.51355       -0.87156
C         -5.73163        1.39147       -0.11397
C         -6.22222        0.25144       -0.74756
C         -4.78872       -1.50947       -4.11910
H         -6.13059        1.33320       -3.97194
H         -5.24641        3.37538       -2.84508
C         -4.88632        3.76239       -0.20275
H         -5.61725        1.41487        0.96933
H         -6.50915       -0.62474       -0.16711
H         -4.01619       -2.26007       -4.34735
H         -4.29381       -0.62314       -3.69460
H         -5.27804       -1.21988       -5.06527
F         -3.91322        4.39354       -0.93525
F         -4.36465        3.52776        1.03967
F         -5.89688        4.68203       -0.03658

