%NProcShared=4
%Mem=10GB
%Chk=40.chk
#P wB97XD/LANL2DZ opt freq=noraman

previous condition without solvent

0 2 
O         -4.59827        0.54101        2.17275
N         -4.06301        1.34651        1.33676
C         -4.20909        2.82194        1.44222
C         -3.61398        3.26849        0.10182
C         -2.49475        2.23508       -0.21773
C         -3.02545        0.88482        0.36850
C         -1.98312        0.03515        1.09190
C         -3.72031        0.06372       -0.72564
H         -2.37095        2.13641       -1.30674
C         -1.20393        2.64907        0.32327
H         -1.22689       -0.31957        0.37757
H         -2.49140       -0.82426        1.54845
H         -1.47954        0.61036        1.88174
H         -4.28221       -0.75251       -0.24873
H         -2.97239       -0.36466       -1.41034
H         -4.42208        0.68646       -1.30183
C         -5.68388        3.17705        1.59602
C         -3.40669        3.31641        2.65653
H         -6.25730        2.85475        0.71348
H         -5.79375        4.26396        1.72000
H         -2.33689        3.08430        2.55870
H         -3.79666        2.82931        3.56229
N         -0.17072        2.98183        0.75427
H         -3.22877        4.29503        0.13159
H         -4.38262        3.20127       -0.68217
H         -6.08722        2.66867        2.48296
H         -3.51879        4.40623        2.75653

