%NProcShared=4
%Mem=10GB
%Chk=30a.chk
#P wB97XD/LANL2DZ opt freq=noraman

previous condition without solvent

0 1 
C         -7.69509       -3.04197       -0.58261
C         -7.65308       -4.15170        0.26507
C         -7.20148       -3.99791        1.57890
C         -6.80961       -2.74168        2.04399
C         -6.84691       -1.62514        1.19726
C         -7.28934       -1.78853       -0.11858
C         -6.42183       -0.26784        1.68767
C         -8.79345        0.72980        1.78850
C         -9.79241        1.33515        2.75372
C        -10.95450        0.64485        3.11521
C        -11.86400        1.19258        4.02670
C        -11.62140        2.44797        4.59015
C        -10.46330        3.14790        4.23672
C         -9.55868        2.59619        3.32620
C         -8.57915        1.64123        0.57161
H         -8.03339       -3.15422       -1.61436
H         -7.97028       -5.13168       -0.09627
H         -7.15885       -4.86253        2.24457
H         -6.44456       -2.62222        3.06626
H         -7.27818       -0.93354       -0.79837
H         -6.14387        0.35357        0.82710
H         -9.19877       -0.23549        1.43886
H        -11.14290       -0.34087        2.68072
H        -12.76340        0.63690        4.29947
H        -12.33040        2.87784        5.30083
H        -10.26570        4.13153        4.67139
H         -8.65249        3.14569        3.06355
H         -9.53213        1.82828        0.05467
H         -7.87978        1.18776       -0.14641
H         -8.15494        2.60633        0.88943
C         -7.47405        0.44713        2.53282
H         -7.68752       -0.16395        3.42526
H         -7.03426        1.39938        2.87343
O         -5.21155       -0.40593        2.50623
N         -4.19084        0.38882        1.93671
C         -3.65904        1.41795        2.86803
C         -2.34598        1.68983        2.16027
C         -2.04010        0.65676        1.26944
C         -3.11286       -0.40905        1.28887
C         -4.63382        2.59977        2.82587
C         -3.41169        0.92990        4.30437
C         -2.65899       -1.63879        2.09344
C         -3.61950       -0.79194       -0.10407
H         -1.87528       -2.17474        1.53761
H         -3.51589       -2.30575        2.26247
H         -2.24856       -1.33647        3.06327
C         -5.18758        3.17687        3.97396
C         -6.14983        4.18993        3.87272
C         -6.56579        4.64438        2.62102
C         -6.00308        4.08684        1.46559
C         -5.05013        3.07515        1.57332
C         -3.90253        0.23017       -1.02426
C         -4.44500       -0.05848       -2.27556
C         -4.72065       -1.38578       -2.63210
C         -4.43394       -2.40885       -1.73083
C         -3.88801       -2.11297       -0.47720
H         -2.97729        1.74373        4.90445
H         -2.70542        0.09336        4.30958
H         -4.35923        0.60395        4.75635
H         -4.89327        2.82743        4.96239
H         -6.59143        4.61060        4.77879
H         -7.33236        5.41751        2.54452
H         -6.32551        4.43037        0.48137
H         -4.63334        2.60741        0.68070
H         -3.68100        1.26165       -0.74438
H         -4.65410        0.75033       -2.97987
H         -5.15137       -1.61508       -3.60933
H         -4.65281       -3.44585       -1.99059
H         -3.69110       -2.93120        0.21470
C         -1.48872        2.77453        2.31435
C         -0.30939        2.80850        1.56019
C         -0.00744        1.77832        0.66078
C         -0.87635        0.69370        0.50535
H         -1.74539        3.58713        2.99748
H          0.37911        3.64924        1.66716
H          0.91076        1.82862        0.07089
H         -0.66491       -0.10024       -0.21427

