%NProcShared=4
%Mem=10GB
%Chk=31.chk
#P wB97XD/LANL2DZ opt freq=noraman

previous condition without solvent

0 1 
C         -5.02634       -2.92710        2.35960
C         -4.97447       -1.75025        3.11066
C         -5.94091       -0.75614        2.91206
C         -6.95185       -0.94294        1.96907
C         -7.00994       -2.12160        1.20786
C         -6.04011       -3.10898        1.41235
C         -8.15609       -2.32268        0.24148
C         -9.44535       -3.55103        2.11190
C        -10.71850       -3.45216        2.92304
C        -11.96090       -3.73426        2.33682
C        -13.14540       -3.56467        3.05264
C        -13.10650       -3.10815        4.37342
C        -11.87490       -2.82856        4.97023
C        -10.69200       -2.99893        4.24718
C         -9.26617       -4.93163        1.46253
H         -4.27328       -3.70392        2.50590
H         -4.18646       -1.60908        3.85301
H         -5.90348        0.16709        3.49333
H         -7.69393       -0.16297        1.78892
H         -6.07974       -4.02787        0.82288
H         -7.99711       -3.21939       -0.37441
H         -8.59307       -3.36687        2.78747
H        -11.99500       -4.07962        1.30142
H        -14.10360       -3.78206        2.57754
H        -14.03160       -2.96750        4.93336
H        -11.83590       -2.47069        6.00025
H         -9.72692       -2.76769        4.70639
H         -8.28355       -5.00012        0.97213
H        -10.04240       -5.10300        0.69746
H         -9.33873       -5.73604        2.20906
C         -9.46125       -2.44061        1.04331
H         -9.64825       -1.47085        1.53357
H        -10.30240       -2.63492        0.36625
O         -8.24581       -1.17791       -0.66091
N         -8.12715       -1.57022       -2.06344
C         -9.40381       -1.14255       -2.74559
C        -10.59170       -1.75562       -1.99722
C         -6.89717       -0.93282       -2.66861
C         -9.58922        0.38082       -2.78828
C         -9.41920       -1.72791       -4.16533
C         -5.79826       -2.00418       -3.00681
H        -10.75230       -1.24383       -1.04130
H        -10.42020       -2.82765       -1.81475
H         -8.85503        0.85954       -3.45144
H         -9.47647        0.79804       -1.77649
H        -10.59650        0.62159       -3.16290
H         -9.30448       -2.81963       -4.13281
H         -8.63565       -1.31581       -4.81431
H        -10.38880       -1.48772       -4.62548
C         -6.38421       -3.00456       -4.01673
C         -5.32014       -2.81206       -1.79929
H        -11.49970       -1.64036       -2.60802
H         -7.21347       -0.57991       -3.66164
H         -7.26240       -3.50695       -3.58610
H         -5.62598       -3.76464       -4.26482
H         -6.68887       -2.50373       -4.95035
H         -6.17452       -3.30759       -1.32197
H         -4.80208       -2.19718       -1.05247
H         -4.61944       -3.59197       -2.13991
C         -6.36261        0.31366       -1.97680
C         -6.42820        1.54676       -2.64340
C         -5.91490        2.71686       -2.07688
C         -5.29681        2.67214       -0.82570
C         -5.20547        1.44948       -0.15577
C         -5.72909        0.28841       -0.72685
C         -4.60866       -1.28272       -3.65882
H         -6.88442        1.59139       -3.63544
H         -5.99401        3.66125       -2.61892
H         -4.88714        3.57891       -0.37764
H         -4.72375        1.38570        0.82174
H         -5.64969       -0.64193       -0.17686
H         -3.88109       -2.02259       -4.02762
H         -4.10766       -0.61524       -2.94161
H         -4.94595       -0.67048       -4.51290

