%NProcShared=4
%Mem=10GB
%Chk=37.chk
#P wB97XD/LANL2DZ opt freq=noraman

previous condition without solvent

0 1 
C         -5.08566       -4.13218        1.16624
C         -4.62067       -3.20759        2.10455
C         -5.38459       -2.07019        2.39174
C         -6.59213       -1.85393        1.72683
C         -7.05940       -2.77036        0.77159
C         -6.30205       -3.91764        0.51323
C         -8.36815       -2.52827        0.05403
C         -9.59371       -3.58036        2.06040
C        -10.74000       -3.33432        3.01547
C        -12.06810       -3.46177        2.58784
C        -13.12840       -3.18310        3.45169
C        -12.87470       -2.76900        4.76323
C        -11.55530       -2.63907        5.20153
C        -10.49880       -2.92211        4.33158
C         -9.68671       -4.94996        1.37185
H         -4.49796       -5.02141        0.93760
H         -3.67469       -3.37545        2.62083
H         -5.03813       -1.35163        3.13431
H         -7.18545       -0.96335        1.94299
H         -6.65583       -4.63359       -0.22954
H         -8.54501       -3.34368       -0.66431
H         -8.65829       -3.55404        2.64368
H        -12.27330       -3.77774        1.56233
H        -14.15670       -3.27911        3.09775
H        -13.70240       -2.54768        5.43968
H        -11.34530       -2.31484        6.22298
H         -9.46512       -2.82094        4.67330
H         -8.77805       -5.14831        0.78518
H        -10.55190       -4.99514        0.68992
H         -9.79616       -5.75018        2.11964
C         -9.53491       -2.42452        1.04121
H         -9.45034       -1.46953        1.58649
H        -10.48090       -2.39098        0.47891
O         -8.33732       -1.27457       -0.69440
N         -8.09520       -1.51799       -2.10526
C         -9.30103       -1.06430       -2.86652
C        -10.50590       -1.83292       -2.30347
C         -6.78929       -0.92236       -2.49481
C         -9.59134        0.44151       -2.77368
C         -9.11298       -1.49064       -4.33036
C         -5.62334       -1.86065       -2.09849
H        -10.76870       -1.45598       -1.30773
H        -10.28410       -2.90974       -2.23584
H         -8.85626        1.03763       -3.33068
H         -9.57635        0.76243       -1.72154
H        -10.58930        0.64952       -3.19374
H         -8.81934       -2.54997       -4.38384
H         -8.35502       -0.88283       -4.84735
H        -10.06510       -1.35209       -4.86430
C         -5.86917       -3.27605       -2.62416
H        -11.37000       -1.68851       -2.96922
H         -6.80445       -0.92274       -3.59608
H         -6.84138       -3.66124       -2.28820
H         -5.07217       -3.95592       -2.28512
H         -5.87018       -3.27114       -3.72896
C         -6.52240        0.50631       -2.05075
C         -6.39881        1.53024       -3.00208
C         -6.09581        2.83714       -2.62372
C         -5.90898        3.14005       -1.27159
C         -6.01211        2.12974       -0.31090
C         -6.30587        0.82295       -0.70245
C         -4.29512       -1.32388       -2.64635
H         -6.53723        1.29226       -4.05990
H         -5.99820        3.62399       -3.37089
C         -5.65101        4.55987       -0.87589
H         -5.84986        2.36920        0.73973
H         -6.35187        0.03283        0.04278
H         -3.47739       -2.01563       -2.39206
H         -4.05298       -0.33152       -2.23989
H         -4.33996       -1.24226       -3.74700
F         -4.81614        5.19947       -1.75782
F         -5.08355        4.67321        0.36417
F         -6.81306        5.29864       -0.84421
H         -5.56418       -1.88445       -0.99908

