%NProcShared=4
%Mem=10GB
%Chk=38.chk
#P wB97XD/LANL2DZ opt freq=noraman

previous condition without solvent

0 1 
C         -4.61827       -2.94339        4.24904
C         -5.29609       -2.15206        5.17717
C         -6.38236       -1.37202        4.76433
C         -6.79413       -1.39320        3.43057
C         -6.11842       -2.18321        2.49208
C         -5.02608       -2.95271        2.91037
C         -6.60890       -2.24577        1.06709
C         -7.95215       -4.41164        1.51925
C         -9.36253       -4.95662        1.43766
C         -9.97988       -5.14840        0.19176
C        -11.29500       -5.60694        0.10852
C        -12.01580       -5.88493        1.27455
C        -11.41100       -5.69878        2.52097
C        -10.09420       -5.23713        2.59734
C         -6.95418       -5.28204        0.74022
H         -3.76789       -3.55213        4.56420
H         -4.98054       -2.14015        6.22214
H         -6.91483       -0.74935        5.48654
H         -7.64400       -0.78967        3.10392
H         -4.48891       -3.56094        2.17775
H         -5.86763       -2.76749        0.44286
H         -7.64879       -4.40275        2.58007
H         -9.42248       -4.93054       -0.72201
H        -11.76200       -5.74721       -0.86864
H        -13.04520       -6.24120        1.21196
H        -11.96690       -5.90953        3.43558
H         -9.62039       -5.08300        3.57066
H         -7.14871       -5.22798       -0.34343
H         -7.03057       -6.33365        1.05386
H         -5.92125       -4.94427        0.91577
C         -7.96077       -2.96238        1.00043
H         -8.69479       -2.37274        1.57405
H         -8.29799       -2.98161       -0.04283
O         -6.73451       -0.88131        0.57273
N         -6.25692       -0.78651       -0.80593
C         -4.95445       -0.03458       -0.73833
C         -4.36289        0.05821       -2.14990
C         -7.30098       -0.12187       -1.66717
C         -5.09675        1.36509       -0.11586
C         -3.97847       -0.85611        0.11498
C         -8.75760       -0.29134       -1.14400
H         -4.33904       -0.93487       -2.62323
H         -3.33634        0.44471       -2.06430
H         -5.53187        1.28225        0.89032
H         -5.72685        2.02973       -0.72638
H         -4.10272        1.83266       -0.03389
H         -3.88367       -1.87789       -0.28491
H         -4.30231       -0.90460        1.16267
H         -2.98938       -0.37419        0.07902
C         -9.09039        0.78895       -0.10628
H         -4.92897        0.73184       -2.80122
H         -7.12998        0.96585       -1.65953
H        -10.10560        0.63443        0.29493
H         -9.06854        1.78314       -0.58715
H         -8.37384        0.78754        0.72525
C         -7.12383       -0.57847       -3.11352
C         -7.09441       -1.94202       -3.48693
C         -6.86648       -2.28462       -4.82552
C         -6.69477       -1.32255       -5.82501
C         -6.80593        0.01790       -5.45306
C         -7.02371        0.40429       -4.12600
C         -9.78567       -0.22975       -2.27914
C         -7.36085       -3.05349       -2.50641
H         -6.83441       -3.34471       -5.09584
C         -6.40251       -1.71843       -7.24617
H         -6.72042        0.79389       -6.21921
C         -7.15112        1.88280       -3.83179
H         -9.72960        0.73181       -2.81702
H        -10.79890       -0.31895       -1.85679
H         -9.63644       -1.03322       -3.01571
H         -8.84273       -1.27394       -0.66799
H         -6.71434       -2.96136       -1.62358
H         -7.20841       -4.03454       -2.98178
H         -8.40505       -3.00825       -2.15264
H         -6.84897       -2.69593       -7.48630
H         -5.31540       -1.80290       -7.41963
H         -6.79046       -0.97282       -7.95638
H         -8.08362        2.11988       -3.29622
H         -7.14180        2.45814       -4.76996
H         -6.32252        2.25469       -3.20119

