%NProcShared=4
%Mem=10GB
%Chk=Mix_6_St2_opt.chk
#P wB97XD/LANL2DZ opt freq=noraman

previous condition without solvent

0 1
C -4.813469 4.042327 1.402513
C -3.775111 2.910780 1.418660
C -4.228234 1.855251 2.422875
C -4.974737 0.731347 2.065154
C -5.370761 -0.211699 3.008927
C -5.044076 -0.033572 4.353503
C -4.322352 1.096472 4.740293
C -3.913952 2.016066 3.776216
C -3.562982 2.347859 -0.008847
C -2.376310 1.303951 -0.130350
C -2.429050 0.551073 -1.454204
C -1.944058 -0.758719 -1.512572
C -1.943605 -1.490683 -2.695843
C -2.428512 -0.912132 -3.869353
C -2.903065 0.400257 -3.835327
C -2.895796 1.117531 -2.641712
O -1.130348 2.009261 0.006071
N 0.062001 1.235191 -0.057564
C 0.587783 1.012565 1.305575
C 1.968071 0.318901 1.233757
C 2.975240 1.025117 0.320205
C 2.330918 1.187607 -1.059806
C 0.963192 1.902330 -1.020064
C 0.321366 1.785511 -2.565784
C 0.688123 2.251658 2.219375
C -0.415141 -0.047041 2.130241
C 1.190014 3.414695 -0.804405
O 0.239993 -0.496952 3.308990
H -4.920519 4.512661 2.392906
H -5.804583 3.665497 1.101247
H -4.527112 4.835157 0.692428
H -2.808947 3.330226 1.752040
H -5.261500 0.575153 1.016674
H -5.948831 -1.093041 2.694955
H -5.358390 -0.774821 5.099536
H -4.082300 1.253155 5.804083
H -3.336348 2.900056 4.084075
H -3.305727 3.190513 -0.674140
H -4.510886 1.935380 -0.391729
H -2.465796 0.574700 0.684908
H -1.545841 -1.220321 -0.597990
H -1.555070 -2.519165 -2.706221
H -2.432179 -1.481495 -4.809721
H -3.277799 0.871765 -4.755280
H -3.261084 2.154125 -2.644255
H 1.825064 -0.706011 0.842954
H 2.365865 0.207596 2.256906
H 3.906674 0.437733 0.246513
H 3.251498 2.008429 0.736149
H 2.188418 0.177634 -1.487003
H 2.994834 1.728525 -1.755599
H 0.952628 1.912494 3.234222
H -0.273236 2.785224 2.281082
H 1.457436 2.974366 1.921943
O 1.258262 2.294981 -3.506379
H 1.746950 3.665421 0.106005
H 0.235932 3.964441 -0.779745
H 1.782296 3.802134 -1.648227
H -0.605007 2.377048 -2.618583
H 0.095176 0.737797 -2.813648
H -0.652073 -0.915587 1.497591
H -1.353243 0.455697 2.414027
Si 0.997767 2.823391 -5.094500
Si -0.449517 -1.402728 4.555201
C 2.412332 4.074725 -5.515634
C 3.792305 3.424735 -5.299636
C 2.324519 5.324346 -4.618548
C 2.309650 4.533217 -6.981434
C 1.017974 1.342993 -6.287514
C -0.700651 3.677733 -5.194483
C 0.874622 -2.592060 5.320012
C 2.179307 -1.824654 5.603219
C 1.197632 -3.776276 4.389339
C 0.352035 -3.176907 6.643371
C -1.939198 -2.390451 3.902269
C -1.063126 -0.198461 5.895599
H 4.597275 4.159653 -5.473006
H 3.965367 2.587203 -5.996285
H 3.906823 3.042714 -4.271033
H 2.366817 5.066078 -3.548080
H 1.394627 5.890678 -4.795095
H 3.163596 6.009841 -4.824068
H 3.105324 5.259082 -7.214922
H 1.342695 5.020868 -7.183993
H 2.414706 3.688837 -7.681598
H 0.269351 0.594698 -5.980835
H 1.992932 0.833728 -6.309756
H 0.779649 1.654657 -7.316273
H -0.894936 4.056317 -6.209813
H -0.773603 4.531413 -4.504420
H -1.514068 2.982003 -4.939004
H 2.952562 -2.507335 5.996172
H 2.034279 -1.036035 6.361197
H 2.585424 -1.352001 4.694094
H 1.950063 -4.438359 4.853710
H 1.601254 -3.438739 3.420438
H 0.305764 -4.391739 4.186554
H 0.123416 -2.387324 7.376944
H 1.105951 -3.843337 7.094264
H -0.565900 -3.767934 6.490819
H -2.698605 -1.720568 3.470048
H -2.420774 -2.959089 4.712739
H -1.654698 -3.105164 3.115360
H -0.272153 0.075733 6.611874
H -1.881723 -0.656422 6.473863
H -1.445032 0.732486 5.448402

