%NProcShared=4
%Mem=10GB
%Chk=Mix_9_St2_opt.chk
#P wB97XD/LANL2DZ opt freq=noraman

previous condition without solvent

0 1
C -5.596946 0.053607 -3.476945
C -4.396654 1.010929 -3.499154
C -4.790602 2.312689 -4.169363
C -5.747320 3.169546 -3.626886
C -6.066081 4.380339 -4.236238
C -5.425673 4.755728 -5.419112
C -4.478075 3.900892 -5.985429
C -4.171378 2.695648 -5.360078
C -3.834601 1.271335 -2.083658
C -2.602704 2.321801 -2.016979
C -3.123808 3.701682 -1.671334
C -3.741673 3.959303 -0.446911
C -4.224737 5.225345 -0.127370
C -4.095840 6.271855 -1.043031
C -3.477013 6.031854 -2.271632
C -2.998513 4.759531 -2.572335
O -1.656193 1.916978 -1.021275
N -0.289800 2.018356 -1.405301
C 0.218695 0.659478 -1.680759
C 1.723254 0.687976 -1.937559
C 2.400506 1.437303 -0.824064
C 1.916601 2.851678 -0.667226
C 0.413423 2.840142 -0.400718
C -0.061933 4.296279 -0.551182
C -0.089529 -0.398789 -0.605623
C -0.429397 0.153453 -2.983531
C 0.163200 2.457125 1.069594
H -5.979824 -0.134824 -4.493217
H -6.424533 0.462618 -2.875607
H -5.319675 -0.919574 -3.040960
H -3.597194 0.531501 -4.088300
H -6.240992 2.891493 -2.685101
H -6.809816 5.046360 -3.775743
H -5.660328 5.716654 -5.895879
H -3.970333 4.182281 -6.919206
H -3.418406 2.031341 -5.807754
H -3.453391 0.318591 -1.679758
H -4.651516 1.565437 -1.401831
H -2.095389 2.336772 -2.992512
H -3.833147 3.140703 0.281711
H -4.705132 5.400606 0.846056
H -4.475630 7.273873 -0.799057
H -3.371411 6.843917 -3.004988
H -2.520388 4.578008 -3.545505
H 1.933412 1.242507 -2.869898
H 2.132882 -0.324793 -2.028682
H 2.123390 3.369339 -1.621227
H 2.460952 3.361150 0.136596
H -1.102974 4.424590 -0.221316
H 0.005977 4.636232 -1.596748
H 0.556824 4.964812 0.068281
H 0.224222 -1.386777 -0.980526
H -1.167106 -0.449718 -0.382311
H 0.441447 -0.236077 0.342121
H 0.021841 -0.806283 -3.281998
H -0.284635 0.870122 -3.807958
H -1.510536 -0.015565 -2.869931
H 0.587359 1.485130 1.354784
H -0.913218 2.436379 1.304763
H 0.634853 3.214380 1.717251
O 3.251722 0.944833 -0.115848

