%NProcShared=4
%Mem=10GB
%Chk=Mix_18_St2_opt.chk
#P wB97XD/LANL2DZ opt freq=noraman

previous condition without solvent

0 1
C -4.884220 0.302988 -4.341255
C -3.762116 1.268779 -3.933746
C -3.966597 2.610697 -4.610409
C -5.073811 3.415931 -4.346548
C -5.228474 4.659315 -4.954050
C -4.264676 5.122171 -5.852597
C -3.155132 4.323175 -6.136171
C -3.017005 3.084077 -5.517020
C -3.674063 1.445102 -2.400226
C -2.515190 2.454478 -1.897342
C -3.179629 3.693235 -1.331521
C -3.211835 4.882603 -2.061099
C -3.841970 6.021812 -1.567907
C -4.466852 5.987414 -0.319339
C -4.453713 4.801654 0.418865
C -3.821037 3.671883 -0.092684
O -1.725556 1.840961 -0.871611
N -0.316877 1.820395 -1.093764
C 0.113607 0.401877 -1.208241
C 1.638004 0.295132 -1.172793
C 2.154911 1.056663 0.013211
C 1.831998 2.521967 -0.052460
C 0.313876 2.689706 -0.072383
C 0.053910 4.153694 -0.471645
C -0.523146 -0.507327 -0.115109
C -0.362219 -0.105945 -2.599061
C -0.213531 2.529342 1.366446
H -4.931720 0.182154 -5.435664
H -5.867706 0.661541 -3.998103
H -4.723761 -0.695906 -3.904171
H -2.809140 0.834698 -4.277103
H -5.829748 3.066093 -3.628983
H -6.105105 5.278715 -4.716485
H -4.376610 6.105248 -6.330374
H -2.390304 4.673186 -6.844551
H -2.137824 2.463048 -5.740923
H -3.457990 0.466811 -1.941295
H -4.667751 1.728974 -2.009009
H -1.855244 2.722241 -2.733866
H -2.724191 4.917963 -3.046597
H -3.848466 6.945439 -2.164607
H -4.965515 6.883087 0.077028
H -4.943043 4.758175 1.402533
H -3.809751 2.740221 0.492134
H 2.074144 0.787202 -2.059220
H 1.977553 -0.745367 -1.153102
H 2.266848 2.905178 -0.993213
H 2.278822 3.062442 0.790122
H -0.998317 4.440157 -0.337588
H 0.323385 4.336327 -1.523906
H -1.621724 -0.394694 -0.151185
H -0.222609 -0.162498 0.885749
H -1.463492 -0.159309 -2.602113
H -0.015687 -1.145801 -2.727198
H 0.044349 1.567231 1.830173
H -1.307741 2.645278 1.417778
O 2.759834 0.543646 0.929006
C 0.081372 0.681271 -3.842565
C -0.211302 -2.010829 -0.176066
H -0.190438 1.745885 -3.778578
H -0.403218 0.265022 -4.740942
H 1.168996 0.621811 -4.000411
H -0.551554 -2.472347 -1.115368
H -0.731654 -2.527924 0.647756
H 0.863633 -2.217982 -0.058790
H 0.651605 4.831125 0.158754
H 0.235341 3.316234 1.994938

