%NProcShared=4
%Mem=10GB
%Chk=Mix_1_St2_opt.chk
#P wB97XD/LANL2DZ opt freq=noraman

previous condition without solvent

0 1
C -5.944234 -1.454593 -0.941052
C -4.642804 -1.918729 -1.614523
C -4.954716 -2.559875 -2.954217
C -5.653901 -1.880068 -3.952073
C -5.900527 -2.461193 -5.192497
C -5.439365 -3.751071 -5.460902
C -4.739598 -4.447023 -4.472881
C -4.504330 -3.849575 -3.237439
C -3.634071 -0.793561 -1.874923
C -3.124271 0.006055 -0.584265
C -2.345710 -0.932462 0.313708
C -1.063594 -1.363982 -0.026324
C -0.354503 -2.247373 0.782604
C -0.929505 -2.727373 1.961233
C -2.215284 -2.310706 2.313226
C -2.909327 -1.426956 1.491015
O -2.272820 1.113037 -0.912358
N -2.722890 1.973907 -1.946167
C -1.606288 2.053750 -2.929256
C -1.949888 3.094350 -4.026400
C -2.304130 4.473221 -3.456108
C -3.466217 4.290964 -2.476164
C -3.218342 3.256135 -1.348852
C -4.597859 2.990529 -0.687491
C -0.233427 2.410020 -2.302550
C -1.412275 0.703540 -3.660663
C -2.286145 3.852394 -0.267645
O -0.510459 -0.090176 -3.517565
O -2.422444 0.526348 -4.559950
C -2.425909 -0.665577 -5.355000
H -6.657111 -2.290325 -0.845277
H -6.436117 -0.653886 -1.515338
H -5.759282 -1.066872 0.072641
H -4.171689 -2.666141 -0.954459
H -6.008352 -0.857866 -3.757215
H -6.452688 -1.901651 -5.961307
H -5.624676 -4.212471 -6.440475
H -4.371527 -5.463709 -4.672900
H -3.944391 -4.399202 -2.466842
H -4.083289 -0.063789 -2.569119
H -2.751038 -1.209807 -2.388202
H -3.993621 0.398698 -0.043144
H -0.604624 -0.988932 -0.953458
H 0.655939 -2.567073 0.489238
H -0.376547 -3.427809 2.602965
H -2.680012 -2.683868 3.237411
H -3.921240 -1.106014 1.776608
H -2.831142 2.760752 -4.604006
H -1.106623 3.159320 -4.734421
H -2.599436 5.159135 -4.269429
H -1.432868 4.933973 -2.961438
H -4.329643 3.921178 -3.062368
H -3.784700 5.247364 -2.028265
H 0.540717 2.401338 -3.085938
H 0.060336 1.702447 -1.511074
H -0.238617 3.417126 -1.865132
H -1.537486 -0.719991 -6.000731
H -3.328152 -0.626699 -5.981066
H -2.462100 -1.569202 -4.729408
O -1.569747 4.821823 -0.359341
O -2.427611 3.139216 0.885343
C -1.647182 3.520551 2.023255
H -4.546067 2.337419 0.194652
H -5.256609 2.507939 -1.428149
H -5.061895 3.939666 -0.377965
H -0.570060 3.475381 1.805883
H -1.884428 2.806473 2.824214
H -1.897719 4.537263 2.357552

