%NProcShared=4
%Mem=10GB
%Chk=Mix_10_St2_opt.chk
#P wB97XD/LANL2DZ opt freq=noraman

previous condition without solvent

0 1
C -4.040120 0.229138 -5.248760
C -3.558466 1.547933 -4.621612
C -4.753773 2.495320 -4.607878
C -5.673724 2.547752 -3.561837
C -6.774098 3.400741 -3.600086
C -6.998155 4.212054 -4.714968
C -6.099594 4.162249 -5.782445
C -4.993270 3.316160 -5.715305
C -2.911460 1.250904 -3.238660
C -1.986432 2.386935 -2.557136
C -2.818506 3.627545 -2.294219
C -3.599506 3.750991 -1.144342
C -4.384289 4.877591 -0.914332
C -4.413430 5.910161 -1.853988
C -3.649840 5.796480 -3.017674
C -2.867660 4.664293 -3.228201
O -1.434939 1.946705 -1.300386
N -0.044633 1.593044 -1.267274
C 0.031236 0.272681 -0.604402
C 1.447534 -0.329065 -0.554795
C 2.240240 2.519823 -0.647464
C 0.721196 2.769257 -0.791807
C 0.656503 3.861970 -1.884120
C -0.624286 0.195397 0.790551
C -0.759846 -0.716114 -1.486105
C 0.183862 3.419374 0.497059
H -4.469132 0.379006 -6.252724
H -4.813415 -0.242033 -4.620117
H -3.209664 -0.488100 -5.350621
H -2.772163 1.969543 -5.271506
H -5.527432 1.912114 -2.678829
H -7.465860 3.428328 -2.746350
H -7.872106 4.878841 -4.753344
H -6.271554 4.787576 -6.672670
H -4.291274 3.281179 -6.560736
H -2.254524 0.376685 -3.384539
H -3.666244 0.921265 -2.507139
H -1.161828 2.614437 -3.247942
H -3.580927 2.939964 -0.401695
H -4.985221 4.950796 0.003421
H -5.037006 6.798866 -1.684112
H -3.675366 6.594739 -3.772995
H -2.277832 4.579160 -4.152051
H 1.957573 -0.191092 -1.522950
H 1.377104 -1.407076 -0.350669
H 2.714219 3.508146 -0.506988
H 2.622020 2.135988 -1.611351
H -0.345663 4.299177 -1.991919
H 0.969426 3.467688 -2.864113
H 1.325698 4.698135 -1.624013
H -0.622860 -0.854415 1.126309
H -1.669760 0.541558 0.761514
H -0.101668 0.779783 1.560247
H -0.647800 -1.744520 -1.106804
H -0.403358 -0.695040 -2.528186
H -1.838490 -0.495883 -1.483333
H 0.270809 2.776363 1.383124
H -0.876016 3.702090 0.393790
H 0.758742 4.337008 0.700618
C 2.787133 1.644154 0.483589
C 2.311102 0.215938 0.554389
O 2.642977 -0.477447 1.498390
H 2.581647 2.077534 1.475112
H 3.886363 1.589636 0.407692

