%NProcShared=4
%Mem=10GB
%Chk=Mix_19_St2_opt.chk
#P wB97XD/LANL2DZ opt freq=noraman

previous condition without solvent

0 1
C -2.416918 0.094272 2.575908
C -3.532160 0.212391 1.523906
C -4.640568 1.099055 2.072404
C -4.449045 2.452242 2.343648
C -5.461432 3.234413 2.896004
C -6.703874 2.665600 3.191891
C -6.926064 1.317334 2.901338
C -5.897465 0.554596 2.348898
C -3.007762 0.721623 0.167275
C -2.161823 -0.393627 -0.651259
C -3.144764 -1.479879 -1.044097
C -3.112357 -2.726947 -0.415743
C -4.024902 -3.727711 -0.739295
C -5.019887 -3.480972 -1.687861
C -5.080088 -2.231409 -2.310485
C -4.148730 -1.250131 -1.986313
O -1.536766 0.146400 -1.831484
N -0.183317 -0.264040 -2.124826
C 0.729985 0.852802 -1.736904
C 2.206150 0.646029 -2.122722
C 1.189586 -1.298071 -4.029695
C -0.200656 -0.908015 -3.471666
C -0.925254 -2.276581 -3.304186
C 0.213456 2.238630 -2.234319
C 0.746814 0.875994 -0.178128
C -0.988051 -0.052940 -4.509229
H -2.802530 -0.327938 3.517762
H -1.973589 1.077294 2.805542
H -1.599543 -0.559782 2.233244
H -3.952082 -0.795960 1.370089
H -3.469397 2.904282 2.131095
H -5.279288 4.297156 3.116423
H -7.499773 3.281284 3.636232
H -7.907390 0.864801 3.108180
H -6.077033 -0.507537 2.126120
H -2.373045 1.609505 0.322051
H -3.838818 1.062048 -0.475605
H -1.384260 -0.806375 0.001764
H -2.335578 -2.925959 0.336705
H -3.968713 -4.705738 -0.239506
H -5.751200 -4.260910 -1.942697
H -5.863272 -2.017414 -3.051768
H -4.194962 -0.264046 -2.469034
H 2.538669 -0.367092 -1.842419
H 2.826773 1.365886 -1.572041
H 1.017819 -1.989988 -4.873204
H 1.725301 -1.889374 -3.266758
H -0.898660 -2.808530 -4.270501
H -1.995594 -2.108431 -3.121062
H -0.837296 2.367802 -1.917015
H 0.197174 2.264100 -3.335486
H -0.255381 1.131632 0.200075
H 1.393794 1.708234 0.150767
H -0.491708 0.920461 -4.639653
H -1.989228 0.172025 -4.101138
C 2.145923 -0.224620 -4.556133
C 2.548539 0.847528 -3.575861
O 3.205213 1.798042 -3.959373
H 1.759412 0.279445 -5.454867
H 3.092102 -0.700162 -4.866843
C -0.390353 -3.239068 -2.232693
C -1.181037 -0.636547 -5.915734
C 0.994051 3.475906 -1.765697
C 1.239861 -0.387467 0.547083
H -0.349230 -2.762723 -1.242394
H 0.619717 -3.604116 -2.473467
H -1.053214 -4.116870 -2.153498
H -0.222212 -0.835644 -6.417021
H -1.728947 0.091418 -6.537489
H -1.764569 -1.569622 -5.905393
H 0.866181 3.663136 -0.688615
H 0.637292 4.370651 -2.301348
H 2.071599 3.383868 -1.966670
H 0.694552 -1.290769 0.235379
H 1.105777 -0.270932 1.634419
H 2.311244 -0.565791 0.365156

