%NProcShared=4
%Mem=10GB
%Chk=Mix_15_St2_opt.chk
#P wB97XD/LANL2DZ opt freq=noraman

previous condition without solvent

0 1
C -4.272773 4.185173 0.999233
C -3.931036 2.688127 1.033704
C -5.228465 1.902014 0.931928
C -5.906484 1.727479 -0.273772
C -7.110062 1.030235 -0.337797
C -7.676410 0.503235 0.824702
C -7.020431 0.679518 2.044418
C -5.809200 1.367189 2.084842
C -2.906295 2.330773 -0.073457
C -2.329080 0.816950 -0.045586
C -3.081216 0.015772 -1.087603
C -2.867820 0.213454 -2.452224
C -3.579897 -0.501643 -3.411115
C -4.544471 -1.430421 -3.014053
C -4.782794 -1.628093 -1.652263
C -4.058166 -0.905911 -0.708069
O -0.922103 0.814432 -0.349508
N -0.101979 -0.060889 0.437619
C 0.513468 -1.067920 -0.476144
C 0.894548 -0.506462 -1.864928
C 1.647671 1.779368 0.892343
C 0.639587 0.736697 1.438024
C -0.392162 1.562708 2.246155
C 1.700614 -1.877771 0.079516
C -0.553250 -2.157580 -0.717595
C 1.302021 -0.113403 2.543411
H -4.972369 4.461844 1.804776
H -4.738349 4.462199 0.039621
H -3.367407 4.801303 1.120793
H -3.453661 2.470820 2.004370
H -5.476989 2.139888 -1.197321
H -7.614074 0.898995 -1.306141
H -8.631751 -0.039062 0.781964
H -7.470514 0.284175 2.968996
H -5.299675 1.505174 3.049199
H -2.031403 2.991003 0.043653
H -3.312450 2.595017 -1.065503
H -2.471006 0.382633 0.953812
H -2.103973 0.939315 -2.768145
H -3.380407 -0.334483 -4.479355
H -5.111271 -1.997745 -3.765246
H -5.544009 -2.349776 -1.322482
H -4.258644 -1.061217 0.362168
H -0.029328 -0.349260 -2.452995
H 1.429420 -1.311828 -2.399138
H 1.922247 2.390765 1.772937
H 1.121694 2.469481 0.208748
H -1.177949 0.918163 2.670748
H -0.873219 2.345797 1.645712
H 0.107418 2.075817 3.084008
H 1.980233 -2.643782 -0.662669
H 1.429003 -2.400674 1.010280
H 2.601918 -1.283274 0.271135
H -0.127082 -2.985355 -1.306307
H -1.420353 -1.789513 -1.279268
H -0.921320 -2.567026 0.236992
H 2.175962 -0.696104 2.225417
H 0.571952 -0.816491 2.976455
H 1.655874 0.551683 3.348275
C 2.994105 1.363671 0.264391
H 3.470713 0.581994 0.878154
H 3.660006 2.239046 0.382741
C 3.065206 0.964926 -1.235296
C 1.740288 0.812651 -2.074241
H 3.661191 0.042364 -1.345805
H 1.092337 1.692083 -1.899222
O 2.086684 0.765935 -3.463443
H 3.654024 1.743440 -1.751677
H 2.673869 1.495725 -3.634669

