%NProcShared=4
%Mem=10GB
%Chk=Mix_17_St2_opt.chk
#P wB97XD/LANL2DZ opt freq=noraman

previous condition without solvent

0 1
C -5.705934 3.178603 -1.474221
C -4.794500 2.106803 -0.856994
C -5.632086 0.973091 -0.295672
C -6.502235 0.223765 -1.087310
C -7.261266 -0.814156 -0.551495
C -7.150871 -1.129777 0.804651
C -6.284002 -0.389836 1.611278
C -5.540766 0.649327 1.058792
C -3.761722 1.571128 -1.875698
C -2.698827 0.509190 -1.275554
C -3.017251 -0.844283 -1.877810
C -3.723935 -1.803667 -1.151395
C -4.054580 -3.037463 -1.704621
C -3.687760 -3.332891 -3.019415
C -2.994253 -2.377750 -3.765940
C -2.675607 -1.148298 -3.196054
O -1.356579 0.875925 -1.626312
N -0.408538 0.942116 -0.558048
C 0.015097 2.357048 -0.386546
C 1.184832 2.460883 0.627785
C 2.389677 1.482894 0.374299
C 1.766587 0.043576 0.265000
C 0.623670 -0.108511 -0.766552
C -0.040289 -1.490425 -0.480270
C 0.442637 3.144120 -1.667983
C -1.188959 3.132030 0.226861
C 1.154337 -0.146287 -2.230560
H -6.433838 3.559067 -0.739524
H -6.268576 2.783763 -2.334943
H -5.115928 4.037829 -1.831714
H -4.238039 2.584112 -0.034039
H -6.582365 0.455833 -2.158706
H -7.946996 -1.385663 -1.195420
H -7.739597 -1.951989 1.233230
H -6.189562 -0.625655 2.681108
H -4.859665 1.227035 1.700133
H -3.173106 2.419218 -2.256692
H -4.293204 1.174936 -2.759669
H -2.780348 0.478273 -0.181819
H -4.018908 -1.579086 -0.116208
H -4.606631 -3.775457 -1.104907
H -3.944726 -4.305063 -3.462611
H -2.701585 -2.593633 -4.803492
H -2.127871 -0.398021 -3.785378
H 0.807070 2.222026 1.636550
H 1.533061 3.506068 0.668598
H 1.354970 -0.170648 1.267343
H 2.536768 -0.721012 0.080466
H 0.745556 -2.263341 -0.538048
H -0.738580 -1.732806 -1.297721
H 1.381764 2.745386 -2.077851
H 0.703447 4.157877 -1.310963
H -2.011982 3.146878 -0.505478
H -0.884553 4.186793 0.348673
H 1.593265 0.823223 -2.506083
H 0.292452 -0.279315 -2.909071
O 3.123913 1.901940 -0.767760
C -0.781024 -1.688755 0.851981
C 2.192494 -1.224359 -2.576411
C -1.768157 2.649254 1.566820
C -0.508022 3.321685 -2.860138
H -1.280493 -2.671262 0.854981
H -1.552773 -0.921952 1.014673
H -0.096972 -1.663393 1.713456
H 1.803323 -2.242823 -2.426020
H 3.112930 -1.114669 -1.983513
H 2.474648 -1.136468 -3.638813
H -2.019132 1.578068 1.545176
H -2.690913 3.206183 1.795789
H -1.071494 2.813647 2.402513
H -0.748788 2.365274 -3.348275
H -0.017473 3.959113 -3.614221
H -1.450481 3.812293 -2.576003
H 3.055472 1.521881 1.258901
H 3.947962 1.426081 -0.765126

