%NProcShared=4
%Mem=10GB
%Chk=Mix_2_St2_opt.chk
#P wB97XD/LANL2DZ opt freq=noraman

previous condition without solvent

0 1
C -5.760293 -0.302080 -0.274106
C -4.549346 -1.045487 -0.859884
C -5.043670 -2.108640 -1.827518
C -5.705797 -1.791701 -3.013528
C -6.166074 -2.783341 -3.877249
C -5.973356 -4.131040 -3.562992
C -5.309482 -4.465754 -2.380764
C -4.852805 -3.459763 -1.532432
C -3.557238 -0.108491 -1.567261
C -2.805006 0.940021 -0.611752
C -1.974715 0.177249 0.400910
C -0.739127 -0.371717 0.057178
C 0.013350 -1.101617 0.973036
C -0.473636 -1.311877 2.265154
C -1.717891 -0.786218 2.620125
C -2.454476 -0.056381 1.690978
O -1.923125 1.807991 -1.338056
N -2.512234 2.964087 -1.908724
C -2.125194 3.012266 -3.346431
C -2.632594 4.338963 -3.958976
C -2.211162 5.583449 -3.166622
C -2.715724 5.422891 -1.727337
C -2.209912 4.135283 -1.034886
C -2.990740 4.043353 0.297868
C -0.600997 2.865193 -3.617158
C -2.825269 1.884427 -4.142606
C -0.709583 4.306456 -0.661545
O -3.907579 1.919436 -4.681891
O -2.007245 0.794222 -4.195654
C -2.444892 -0.351019 -4.937444
H -6.472110 -1.003723 0.190403
H -6.300615 0.258100 -1.054078
H -5.458984 0.419507 0.500871
H -4.025042 -1.547203 -0.030230
H -5.869882 -0.734213 -3.267811
H -6.688106 -2.503084 -4.803846
H -6.343046 -4.921038 -4.234322
H -5.153080 -5.523053 -2.118945
H -4.333208 -3.732818 -0.602457
H -4.097879 0.461397 -2.339596
H -2.784561 -0.695407 -2.092893
H -3.556507 1.555284 -0.097563
H -0.352535 -0.209776 -0.960169
H 0.987630 -1.515965 0.675930
H 0.113806 -1.889241 2.992809
H -2.117997 -0.952157 3.630801
H -3.436731 0.346507 1.976334
H -3.739018 4.334475 -3.972257
H -2.302867 4.401235 -5.009724
H -2.650191 6.489487 -3.621659
H -1.117708 5.723458 -3.191473
H -3.820699 5.398590 -1.781417
H -2.447154 6.296444 -1.108825
H -0.431435 2.781136 -4.702534
H -0.167749 1.983379 -3.120190
H -0.040498 3.747021 -3.283115
H -2.538348 -0.121929 -6.009109
H -3.411261 -0.725284 -4.571226
H -1.681276 -1.128989 -4.798468
O -4.111210 4.434714 0.530302
O -2.201077 3.457540 1.242130
C -2.712477 3.319192 2.572698
H -0.105211 4.613365 -1.524262
H -0.268674 3.384371 -0.251920
H -0.611121 5.110194 0.086372
H -2.871382 4.299210 3.045792
H -1.958599 2.758176 3.142764
H -3.661918 2.764865 2.585104

