%NProcShared=4
%Mem=10GB
%Chk=Mix_11_St2_opt.chk
#P wB97XD/LANL2DZ opt freq=noraman

previous condition without solvent

0 1
C -6.340630 1.506241 0.626536
C -4.920101 0.971310 0.860832
C -4.999578 -0.416634 1.468284
C -5.519069 -1.505759 0.769392
C -5.576348 -2.775000 1.339318
C -5.113448 -2.977565 2.641251
C -4.596917 -1.895982 3.357905
C -4.545515 -0.634889 2.769817
C -4.087278 0.969420 -0.441248
C -2.547402 0.484828 -0.279958
C -2.479586 -1.008217 -0.531399
C -2.822970 -1.556957 -1.768147
C -2.773701 -2.929924 -1.994464
C -2.377911 -3.791427 -0.968929
C -2.032060 -3.259055 0.274926
C -2.085065 -1.883246 0.481642
O -1.705176 1.175759 -1.218017
N -0.431619 1.618732 -0.729609
C 0.595040 1.022472 -1.623635
C 2.045098 1.438938 -1.382160
C 0.744173 3.713062 0.178185
C -0.533333 3.070781 -0.435542
C -0.935486 3.943897 -1.637403
C 0.566680 -0.505281 -1.405176
C 0.336529 1.247619 -3.127245
C -1.616525 3.277978 0.647017
H -6.925847 1.520531 1.560653
H -6.886155 0.886369 -0.102850
H -6.316365 2.535737 0.234511
H -4.419574 1.649892 1.572080
H -5.875983 -1.359208 -0.259716
H -5.978469 -3.617999 0.759273
H -5.154291 -3.977715 3.094845
H -4.230030 -2.039876 4.384258
H -4.136205 0.210753 3.340692
H -4.052686 1.998627 -0.835313
H -4.608574 0.391067 -1.223950
H -2.202165 0.715801 0.737161
H -3.121948 -0.880979 -2.582437
H -3.045073 -3.334539 -2.980047
H -2.338540 -4.876645 -1.138491
H -1.724551 -3.924771 1.094129
H -1.819206 -1.474833 1.467135
H 2.244813 2.479525 -1.679345
H 2.696599 0.837701 -2.035847
H 0.459121 4.738102 0.483740
H 1.508439 3.885340 -0.595009
H -1.856175 3.578646 -2.119356
H -0.149688 3.993744 -2.405025
H -1.118510 4.973157 -1.289419
H 1.426659 -0.981399 -1.903203
H -0.329923 -0.964814 -1.841253
H 0.602771 -0.771299 -0.337700
H 1.071015 0.665590 -3.707572
H 0.439106 2.299737 -3.428292
H -0.668918 0.911531 -3.427963
H -1.427298 2.651921 1.532789
H -2.628072 3.058751 0.282132
H -1.626607 4.330450 0.973196
C 1.416086 3.036843 1.390296
H 0.765542 3.145760 2.274993
H 2.333525 3.607371 1.624556
C 1.774308 1.548181 1.250354
C 2.602608 1.253753 0.012946
O 3.761936 0.905000 0.134894
H 0.856553 0.937201 1.243988
H 2.377058 1.225075 2.111138

