%NProcShared=4
%Mem=10GB
%Chk=Mix_4_St2_opt.chk
#P wB97XD/LANL2DZ opt freq=noraman

previous condition without solvent

0 1
C -5.104794 2.250579 1.655249
C -5.245069 1.026870 0.734795
C -6.609089 1.060604 0.066329
C -6.996628 2.098829 -0.780912
C -8.255731 2.118451 -1.377006
C -9.162992 1.085284 -1.129659
C -8.788749 0.035271 -0.288234
C -7.524834 0.032921 0.297235
C -4.154912 0.951231 -0.344059
C -2.660203 0.771159 0.203523
C -2.513166 -0.589454 0.855199
C -2.710674 -0.741518 2.228944
C -2.599809 -1.983441 2.847381
C -2.294239 -3.114475 2.088185
C -2.113190 -2.982879 0.709714
C -2.233369 -1.733399 0.107991
O -1.684493 0.877145 -0.842974
N -1.359630 2.198325 -1.232686
C -0.112539 2.653305 -0.512176
C 1.173136 2.392941 -1.351319
C 1.054504 2.819310 -2.816651
C -0.118768 2.035774 -3.407845
C -1.481087 2.319903 -2.729403
C -2.459821 1.279798 -3.339690
C -0.218731 4.175158 -0.195524
C 0.115624 1.922518 0.840782
C -2.027601 3.739371 -3.070119
O -0.069007 2.352545 1.955956
O 0.617385 0.676673 0.604646
C 0.879972 -0.186585 1.718956
H -5.892761 2.258920 2.426719
H -5.183458 3.190110 1.084553
H -4.133241 2.270566 2.176486
H -5.180197 0.120795 1.358315
H -6.290628 2.917885 -0.980033
H -8.536484 2.954950 -2.032872
H -10.161397 1.094632 -1.591376
H -9.493565 -0.784591 -0.082111
H -7.238198 -0.797998 0.958176
H -4.179440 1.876541 -0.940187
H -4.363842 0.121435 -1.041419
H -2.454493 1.559868 0.941661
H -2.944189 0.145326 2.835643
H -2.751915 -2.072257 3.932689
H -2.201365 -4.098368 2.568943
H -1.876680 -3.864859 0.097608
H -2.086465 -1.635038 -0.978368
H 1.411580 1.313503 -1.374726
H 2.023512 2.886870 -0.851105
H 1.985193 2.573485 -3.357948
H 0.906710 3.907091 -2.917133
H 0.127291 0.964116 -3.279486
H -0.213515 2.203378 -4.492988
H -0.081196 4.742192 -1.130272
H 0.649113 4.455530 0.428583
H 1.807708 0.096051 2.241288
H 0.976462 -1.203287 1.313774
H 0.053682 -0.172489 2.443104
O -2.185970 0.203068 -3.818728
O -3.731376 1.774675 -3.311527
C -4.781369 0.971513 -3.864649
H -1.322685 4.481504 -2.665228
H -2.969023 3.899161 -2.513526
H -5.704578 1.566164 -3.808576
H -4.918349 0.040936 -3.294975
H -4.579015 0.711542 -4.913217
C -2.248288 4.095927 -4.546673
C -1.503667 4.677916 0.472604
H -2.953104 3.414185 -5.047917
H -2.658283 5.116038 -4.629415
H -1.299665 4.074763 -5.106580
H -1.660591 4.235676 1.468413
H -2.391239 4.446963 -0.137621
H -1.461262 5.771764 0.599307

